 vasp.5.4.4.18Apr17-6-g9f103f2a35 (build Jul 24 2019 14:41:59) complex

 executed on IFC18.0.1.163_CrayMP date 2021.01.10  08:48:59

 INCAR:
 POTCAR:   PAW_PBE Pt 05Jan2001
 POTCAR:   PAW_PBE C 08Apr2002
 POTCAR:   PAW_PBE H 15Jun2001
 POTCAR:   PAW_PBE C 08Apr2002
 POTCAR:   PAW_PBE H 15Jun2001

 POTCAR:   PAW_PBE Pt 05Jan2001
   VRHFIN =Pt: s1d9

   TITEL  = PAW_PBE Pt 05Jan2001
   POMASS =  195.080; ZVAL   =   10.000    mass and valenz
   ENMAX  =  230.283; ENMIN  =  172.712 eV
   QCUT   =   -4.114; QGAM   =    8.228    optimization parameters

   Description
     l     E      TYP  RCUT    TYP  RCUT
     2   .000     23  2.500
     2   .000     23  2.500
     0   .000     23  2.500
     0   .000     23  2.500
     1  -.200     23  2.500
     1  1.500     23  2.500
     3   .000      7   .000

 POTCAR:   PAW_PBE C 08Apr2002
   VRHFIN =C: s2p2

   TITEL  = PAW_PBE C 08Apr2002
   POMASS =   12.011; ZVAL   =    4.000    mass and valenz
   ENMAX  =  400.000; ENMIN  =  300.000 eV
   QCUT   =   -5.516; QGAM   =   11.032    optimization parameters

[...]

 POTCAR:   PAW_PBE H 15Jun2001
   VRHFIN =H: ultrasoft test

   TITEL  = PAW_PBE H 15Jun2001
   POMASS =    1.000; ZVAL   =    1.000    mass and valenz
   ENMAX  =  250.000; ENMIN  =  200.000 eV
   QCUT   =   -5.749; QGAM   =   11.498    optimization parameters

[...]

 POTCAR:   PAW_PBE C 08Apr2002
   VRHFIN =C: s2p2

   TITEL  = PAW_PBE C 08Apr2002
   POMASS =   12.011; ZVAL   =    4.000    mass and valenz
   ENMAX  =  400.000; ENMIN  =  300.000 eV
   QCUT   =   -5.516; QGAM   =   11.032    optimization parameters

[...]

 POTCAR:   PAW_PBE H 15Jun2001
   VRHFIN =H: ultrasoft test

   TITEL  = PAW_PBE H 15Jun2001
   POMASS =    1.000; ZVAL   =    1.000    mass and valenz
   ENMAX  =  250.000; ENMIN  =  200.000 eV
   QCUT   =   -5.749; QGAM   =   11.498    optimization parameters

   Description
     l     E      TYP  RCUT    TYP  RCUT
     0   .000     23  1.100
     0   .500     23  1.100
     1  -.300     23  1.100

 Optimization of the real space projectors (new method)

 maximal supplied QI-value         = 15.12
 optimisation between [QCUT,QGAM] = [ 10.13, 20.26] = [ 28.73,114.92] Ry
 Optimized for a Real-space Cutoff    1.66 Angstroem

   l    n(q)    QCUT    max X(q) W(low)/X(q) W(high)/X(q)  e(spline)
   2      9    10.129     3.643    0.26E-04    0.47E-05    0.66E-07
   2      9    10.129    46.462    0.19E-03    0.14E-03    0.36E-06
   0     10    10.129    13.796    0.20E-04    0.13E-05    0.52E-08
   0     10    10.129    57.669    0.74E-04    0.43E-04    0.14E-06
   1     10    10.129     7.440    0.56E-05    0.78E-05    0.31E-07
   1     10    10.129    10.255    0.35E-04    0.26E-05    0.11E-06
 Optimization of the real space projectors (new method)

[...]

   l    n(q)    QCUT    max X(q) W(low)/X(q) W(high)/X(q)  e(spline)
   0      8    10.053     5.582    0.33E-04    0.11E-04    0.76E-07
   0      8    10.053    69.432    0.23E-03    0.30E-03    0.26E-06
   1      8    10.053     2.780    0.71E-04    0.11E-03    0.15E-06
   1      8    10.053     4.549    0.18E-03    0.18E-03    0.28E-06
 Optimization of the real space projectors (new method)

 maximal supplied QI-value         = 34.20
 optimisation between [QCUT,QGAM] = [  9.92, 20.18] = [ 27.55,114.04] Ry
 Optimized for a Real-space Cutoff    1.35 Angstroem

   l    n(q)    QCUT    max X(q) W(low)/X(q) W(high)/X(q)  e(spline)
   0      8     9.919     4.436    0.29E-04    0.54E-04    0.68E-07
   0      8     9.919    16.131    0.15E-03    0.18E-03    0.35E-06
   1      8     9.919     4.654    0.20E-03    0.45E-03    0.40E-06

 PAW_PBE Pt 05Jan2001                   :
 PAW_PBE C 08Apr2002                    :
 PAW_PBE H 15Jun2001                    :
 PAW_PBE C 08Apr2002                    :
 PAW_PBE H 15Jun2001                    :

 POSCAR: Pt C H C H
  positions in direct lattice
  velocities in cartesian coordinates
 exchange correlation table for  LEXCH =       41
   RHO(1)=    0.500       N(1)  =     2000
   RHO(2)=  100.500       N(2)  =     4000

 ion  position               nearest neighbor table
   1  0.000  0.000  0.372-   2 2.82   4 2.82   3 2.82   6 2.82   8 2.82   7 2.82  10 2.82  12 2.82
                            16 2.82
   2  0.333  0.000  0.372-   4 2.82   1 2.82   5 2.82  10 2.82   8 2.82   9 2.82   3 2.82  11 2.82
                            17 2.82
   3  0.667  0.000  0.372-   6 2.82   5 2.82   1 2.82   7 2.82  12 2.82   9 2.82  11 2.82   2 2.82
                            18 2.82
   4  0.000  0.333  0.372-   2 2.82   9 2.82   1 2.82   7 2.82   5 2.82  10 2.82   6 2.82  13 2.82
                            15 2.82
   5  0.333  0.333  0.372-   6 2.82   8 2.82   7 2.82   3 2.82   2 2.82   4 2.82  11 2.82  14 2.82
                            13 2.82
   6  0.667  0.333  0.372-   3 2.82   5 2.82   8 2.82   1 2.82  15 2.82   9 2.82  12 2.82  14 2.82
                             4 2.82
   7  0.000  0.667  0.372-   5 2.82   8 2.82   9 2.82   4 2.82   3 2.82  16 2.82  13 2.82   1 2.82
                            18 2.82
   8  0.333  0.667  0.372-   6 2.82   5 2.82   7 2.82   1 2.82  17 2.82  16 2.82   2 2.82  14 2.82
                             9 2.82
   9  0.667  0.667  0.372-  18 2.82   4 2.82   7 2.82   6 2.82  15 2.82   2 2.82   3 2.82   8 2.82
                            17 2.82
  10  0.111  0.111  0.457-  25 2.80  13 2.82  15 2.82  11 2.82   4 2.82   2 2.82  12 2.82  17 2.82
                             1 2.82  16 2.82  19 2.83  21 2.86
  11  0.444  0.111  0.457-  20 2.78  14 2.82  12 2.82  13 2.82  18 2.82  10 2.82   5 2.82   3 2.82
                             2 2.82  17 2.82  26 2.85  19 2.88
  12  0.778  0.111  0.457-  27 2.79  20 2.82  15 2.82  14 2.82  11 2.82   3 2.82   6 2.82  10 2.82
                             1 2.82  16 2.82  18 2.82  21 2.85
  13  0.111  0.444  0.457-  22 2.79  16 2.82  11 2.82  14 2.82  10 2.82  18 2.82   7 2.82   5 2.82
                             4 2.82  15 2.82  19 2.83  24 2.88
  14  0.444  0.444  0.457-  20 2.79  16 2.82  17 2.82  15 2.82  11 2.82  12 2.82  13 2.82   5 2.82
                             8 2.82   6 2.82  22 2.83  23 2.83
  15  0.778  0.444  0.457-  17 2.82  18 2.82  14 2.82  12 2.82  10 2.82   6 2.82   9 2.82   4 2.82
                            13 2.82  21 2.83  24 2.84  23 2.85
  16  0.111  0.778  0.457-  22 2.80  25 2.82  14 2.82  13 2.82  17 2.82   7 2.82   8 2.82  12 2.82
                             1 2.82  10 2.82  18 2.82  27 2.83
  17  0.444  0.778  0.457-  23 2.82  15 2.82  14 2.82  18 2.82  16 2.82   8 2.82  10 2.82   9 2.82
                             2 2.82  11 2.82  26 2.83  25 2.84
  18  0.778  0.778  0.457-  27 2.80  15 2.82  17 2.82   9 2.82  11 2.82  13 2.82   3 2.82   7 2.82
                            16 2.82  12 2.82  24 2.84  26 2.87
  19  0.214  0.226  0.544-  21 2.78  29 2.78  24 2.80  25 2.80  35 2.81  22 2.82  10 2.83  13 2.83
                            20 2.84  26 2.85  11 2.88  28 3.07
  20  0.550  0.224  0.542-  30 2.78  11 2.78  14 2.79  27 2.81  12 2.82  22 2.82  26 2.83  19 2.84
                            36 2.84  23 2.84  21 2.84  29 2.87
  21  0.885  0.228  0.544-  19 2.78  24 2.79  34 2.79  30 2.79  23 2.81  25 2.82  15 2.83  27 2.84
                            20 2.84  12 2.85  10 2.86  28 3.04
  22  0.217  0.558  0.542-  13 2.79  16 2.80  31 2.80  19 2.82  20 2.82  29 2.82  24 2.82  27 2.83
                            14 2.83  25 2.84  23 2.84  33 2.84
  23  0.552  0.560  0.543-  30 2.78  26 2.78  24 2.80  21 2.81  17 2.82  31 2.82  25 2.83  14 2.83
                            22 2.84  20 2.84  15 2.85  32 2.96
  24  0.883  0.558  0.544-  33 2.76  21 2.79  23 2.80  19 2.80  26 2.80  22 2.82  27 2.83  15 2.84
                            18 2.84  13 2.88  32 3.00  28 3.01
  25  0.217  0.893  0.543-  31 2.79  10 2.80  19 2.80  26 2.81  21 2.82  16 2.82  27 2.82  23 2.83
                            35 2.83  22 2.84  17 2.84  34 2.85
  26  0.551  0.889  0.544-  23 2.78  36 2.78  24 2.80  25 2.81  27 2.82  20 2.83  17 2.83  35 2.85
                            19 2.85  11 2.85  18 2.87  32 2.97
  27  0.883  0.892  0.542-  33 2.79  12 2.79  18 2.80  20 2.81  25 2.82  26 2.82  22 2.83  34 2.83
                            24 2.83  16 2.83  21 2.84  36 2.87
  28  0.986  0.345  0.640-  40 2.19  32 2.76  33 2.82  29 2.83  35 2.86  34 2.86  30 2.87  24 3.01
                            21 3.04  19 3.07
  29  0.322  0.338  0.628-  19 2.78  35 2.80  30 2.80  36 2.82  22 2.82  28 2.83  31 2.83  33 2.83
                            20 2.87
  30  0.654  0.336  0.627-  23 2.78  20 2.78  21 2.79  34 2.80  36 2.80  29 2.80  32 2.83  31 2.83
                            28 2.87
  31  0.321  0.673  0.628-  25 2.79  22 2.80  33 2.81  32 2.82  23 2.82  34 2.82  35 2.82  29 2.83
                            30 2.83
  32  0.656  0.668  0.637-  39 2.14  28 2.76  31 2.82  30 2.83  36 2.84  33 2.85  35 2.86  23 2.96
                            26 2.97  24 3.00
  33  0.988  0.675  0.627-  24 2.76  27 2.79  36 2.80  31 2.81  28 2.82  34 2.82  29 2.83  22 2.84
                            32 2.85
  34  0.988  0.008  0.629-  21 2.79  30 2.80  35 2.81  33 2.82  31 2.82  27 2.83  36 2.84  25 2.85
                            28 2.86
  35  0.321  0.007  0.630-  29 2.80  19 2.81  34 2.81  36 2.81  31 2.82  25 2.83  26 2.85  32 2.86
                            28 2.86
  36  0.655  0.004  0.629-  26 2.78  30 2.80  33 2.80  35 2.81  29 2.82  34 2.84  20 2.84  32 2.84
                            27 2.87
  37  0.626  0.485  0.792-  43 1.10  44 1.10  38 1.55  42 1.55
  38  0.574  0.542  0.737-  45 1.10  46 1.11  39 1.53  37 1.55
  39  0.712  0.586  0.713-  47 1.10  40 1.52  38 1.53  32 2.14
  40  0.909  0.431  0.717-  39 1.52  52 1.53  41 1.54  28 2.19
  41  0.926  0.266  0.746-  48 1.10  49 1.10  40 1.54  42 1.55
  42  0.827  0.329  0.797-  50 1.10  51 1.10  37 1.55  41 1.55
  43  0.530  0.445  0.807-  37 1.10
  44  0.603  0.606  0.813-  37 1.10
  45  0.434  0.658  0.734-  38 1.10
  46  0.573  0.427  0.717-  38 1.11
  47  0.697  0.714  0.729-  39 1.10
  48  0.868  0.196  0.725-  41 1.10
  49  0.072  0.165  0.752-  41 1.10
  50  0.903  0.373  0.821-  42 1.10
  51  0.832  0.210  0.815-  42 1.10
  52  0.035  0.495  0.739-  54 1.10  55 1.11  53 1.11  40 1.53
  53  0.998  0.534  0.778-  52 1.11
  54  0.180  0.388  0.737-  52 1.10
  55  0.020  0.617  0.719-  52 1.11

IMPORTANT INFORMATION: All symmetrisations will be switched off!
NOSYMM: (Re-)initialisation of all symmetry stuff for point group C_1.

 KPOINTS: Automatic mesh

Automatic generation of k-mesh.
Space group operators:
 irot       det(A)        alpha          n_x          n_y          n_z        tau_x        tau_y        tau_z
    1     1.000000     0.000000     1.000000     0.000000     0.000000     0.000000     0.000000     0.000000

 Subroutine IBZKPT returns following result:

 Found     34 irreducible k-points:

 Following reciprocal coordinates:
            Coordinates               Weight
  0.000000  0.000000  0.000000      1.000000
  0.125000  0.000000  0.000000      2.000000
  0.250000  0.000000  0.000000      2.000000
  0.375000  0.000000  0.000000      2.000000
  0.500000  0.000000  0.000000      1.000000
[...]
      46 -38.3201      47 -38.6212      48 -38.2665      49 -38.3030      50 -38.3114
      51 -38.3259      52 -54.4290      53 -38.5452      54 -38.3559      55 -38.4187

 E-fermi :  -0.5777     XC(G=0):  -6.1761     alpha+bet : -4.9412

[...]

 k-point    34 :       0.5000    0.5000    0.0000
  band No.  band energies     occupation
      1     -16.9147      2.00000
      2     -14.9161      2.00000
      3     -14.3384      2.00000
      4     -12.8183      2.00000
      5     -11.2753      2.00000
      6     -10.4756      2.00000
      7      -8.7398      2.00000
      8      -8.6858      2.00000
      9      -8.6687      2.00000
     10      -8.0596      2.00000
     11      -7.7879      2.00000
     12      -7.4937      2.00000
     13      -7.3766      2.00000
     14      -7.2542      2.00000
     15      -7.2473      2.00000
     16      -6.9095      2.00000
     17      -6.8038      2.00000
     18      -6.6957      2.00000
     19      -6.4933      2.00000
     20      -6.3974      2.00000
     21      -6.3917      2.00000
     22      -6.3830      2.00000
     23      -6.3520      2.00000
     24      -6.3348      2.00000
     25      -6.3247      2.00000
     26      -6.3071      2.00000
     27      -6.2879      2.00000
     28      -6.2627      2.00000
     29      -6.2386      2.00000
     30      -6.1940      2.00000
     31      -6.1441      2.00000
     32      -6.1406      2.00000
     33      -6.1218      2.00000
     34      -6.0964      2.00000
     35      -6.0666      2.00000
     36      -6.0454      2.00000
     37      -5.9649      2.00000
     38      -5.7861      2.00000
     39      -5.7787      2.00000
     40      -5.7674      2.00000
     41      -5.7549      2.00000
     42      -5.6302      2.00000
     43      -5.5420      2.00000
     44      -5.5189      2.00000
     45      -5.5115      2.00000
     46      -5.4928      2.00000
     47      -5.4683      2.00000
     48      -5.4195      2.00000
     49      -5.3612      2.00000
     50      -5.3522      2.00000
     51      -5.3274      2.00000
     52      -5.2353      2.00000
     53      -5.2282      2.00000
     54      -5.2067      2.00000
     55      -5.2041      2.00000
     56      -5.1543      2.00000
     57      -5.1023      2.00000
     58      -5.0619      2.00000
     59      -5.0191      2.00000
     60      -4.9553      2.00000
[...]
    226       2.1409      0.00000
    227       2.1886      0.00000
    228       2.4422      0.00000
    229       2.4961      0.00000
    230       2.5689      0.00000
    231       2.7441      0.00000
    232       2.8699      0.00000
    233       2.8947      0.00000
    234       3.0660      0.00000
    235       3.1630      0.00000
    236       3.2940      0.00000
    237       3.6410      0.00000
    238       4.1070      0.00000
    239       4.3160      0.00000
    240       4.5187      0.00000

 soft charge-density along one line, spin component           1
         0         1         2         3         4         5         6         7         8         9
 total charge-density along one line

------------------------ aborting loop because EDIFF is reached ----------------------------------------

 VOLUME and BASIS-vectors are now :
  energy-cutoff  :      396.00
  volume of cell :     1665.84
      direct lattice vectors                 reciprocal lattice vectors
     8.455582619  0.000000000  0.000000000     0.118265062 -0.068280376  0.000000000
     4.227791797  7.322749070  0.000000000     0.000000000  0.136560736  0.000000000
     0.000000000  0.000000000 26.903955460     0.000000000  0.000000000  0.037169256

  length of vectors
     8.455582619  8.455582619 26.903955460     0.136560736  0.136560736  0.037169256

 FORCES acting on ions
    electron-ion (+dipol)            ewald-force                    non-local-force                 convergence-correction
   -.293E+00 -.412E+00 0.272E+04   0.296E+00 0.415E+00 -.272E+04   -.410E-02 -.874E-02 0.123E+00   -.751E-05 -.982E-04 0.114E-02
   -.269E+00 -.216E+00 0.272E+04   0.318E+00 0.214E+00 -.272E+04   -.199E-02 0.811E-02 0.144E+00   0.194E-04 -.781E-04 0.112E-02
   0.626E+00 0.181E+00 0.272E+04   -.618E+00 -.252E+00 -.272E+04   -.199E-01 0.531E-01 0.186E+00   -.166E-04 -.734E-05 0.103E-02
   -.813E-01 0.633E-01 0.272E+04   0.118E+00 -.851E-01 -.272E+04   0.105E-02 0.652E-02 0.133E+00   0.371E-04 0.503E-04 0.106E-02
   0.542E+00 0.622E+00 0.272E+04   -.549E+00 -.582E+00 -.272E+04   0.843E-02 -.488E-01 0.208E+00   0.634E-04 0.588E-04 0.104E-02
   -.403E+00 -.324E-01 0.272E+04   0.426E+00 0.151E-01 -.272E+04   -.286E-01 -.577E-02 0.165E+00   -.107E-03 0.507E-04 0.107E-02
   0.651E+00 0.174E+00 0.272E+04   -.633E+00 -.200E+00 -.272E+04   -.812E-02 0.723E-02 0.155E+00   0.473E-04 -.105E-06 0.109E-02
   -.423E+00 -.287E+00 0.272E+04   0.442E+00 0.248E+00 -.272E+04   -.122E-01 0.112E-01 0.133E+00   -.117E-04 -.272E-04 0.117E-02
   -.161E+00 -.232E+00 0.272E+04   0.188E+00 0.235E+00 -.272E+04   -.453E-02 0.105E-01 0.138E+00   -.343E-04 0.402E-04 0.108E-02
   -.232E+01 -.263E+01 0.110E+04   0.237E+01 0.269E+01 -.110E+04   -.673E-01 0.312E-01 0.347E-01   0.412E-04 -.145E-03 0.513E-03
   0.661E+01 0.420E+01 0.109E+04   -.657E+01 -.420E+01 -.109E+04   -.108E+00 -.106E-01 -.863E-02   -.984E-04 -.408E-04 0.912E-03
   -.289E+01 -.203E+01 0.110E+04   0.284E+01 0.198E+01 -.110E+04   0.358E-01 0.671E-01 -.470E-01   0.157E-04 0.679E-04 0.681E-03
   0.473E+01 0.294E+01 0.110E+04   -.471E+01 -.304E+01 -.110E+04   -.814E-01 0.455E-01 0.237E-01   0.142E-03 0.543E-04 0.611E-03
   -.210E+01 -.720E+00 0.110E+04   0.206E+01 0.669E+00 -.110E+04   0.117E-01 0.707E-01 -.679E-01   -.599E-05 0.534E-04 0.617E-03
   -.169E+01 -.810E-02 0.110E+04   0.176E+01 0.148E-01 -.110E+04   -.467E-01 0.272E-01 0.408E-01   -.124E-03 -.230E-04 0.420E-03
   0.325E-01 -.168E+01 0.110E+04   -.299E-01 0.167E+01 -.110E+04   -.883E-02 0.344E-01 -.674E-01   0.722E-04 -.543E-04 0.475E-03
   -.355E+01 -.355E+01 0.110E+04   0.367E+01 0.357E+01 -.110E+04   -.687E-01 0.141E-01 0.213E-01   -.136E-03 0.748E-04 0.464E-03
   0.485E+01 0.903E+00 0.109E+04   -.491E+01 -.823E+00 -.109E+04   -.448E-01 -.435E-01 0.636E-01   0.529E-04 0.204E-04 0.657E-03
   -.276E+01 0.668E+01 -.552E+03   0.244E+01 -.650E+01 0.552E+03   0.331E+00 -.191E+00 -.839E-01   0.164E-02 -.929E-03 0.243E-02
   0.720E+01 0.709E+01 -.506E+03   -.727E+01 -.715E+01 0.506E+03   0.610E-01 0.558E-01 0.289E+00   0.396E-03 0.268E-03 0.315E-02
   -.503E+01 0.591E+01 -.540E+03   0.536E+01 -.569E+01 0.540E+03   -.352E+00 -.240E+00 -.994E-01   -.179E-02 -.558E-03 0.301E-02
   -.183E+00 0.109E+01 -.509E+03   0.143E+00 -.118E+01 0.509E+03   0.480E-01 0.857E-01 0.151E+00   -.473E-03 -.703E-04 0.340E-02
   0.150E+01 -.502E+01 -.523E+03   -.117E+01 0.517E+01 0.523E+03   -.348E+00 -.174E+00 -.453E-01   -.120E-02 -.134E-02 0.330E-02
   -.426E+00 0.282E+00 -.542E+03   0.193E+00 -.388E+00 0.542E+03   0.252E+00 0.116E+00 -.578E-01   0.168E-02 0.118E-02 0.283E-02
   -.265E+01 -.374E+01 -.523E+03   0.274E+01 0.381E+01 0.523E+03   -.800E-01 -.703E-01 0.142E+00   0.292E-03 0.211E-03 0.355E-02
   0.735E+00 -.828E+01 -.557E+03   -.722E+00 0.790E+01 0.557E+03   -.793E-02 0.387E+00 -.183E+00   0.238E-03 0.189E-02 0.201E-02
   0.214E+01 -.345E+01 -.516E+03   -.222E+01 0.348E+01 0.516E+03   0.838E-01 -.255E-01 0.168E+00   -.449E-03 -.668E-03 0.354E-02
   -.648E+02 0.997E+02 -.208E+04   0.651E+02 -.996E+02 0.208E+04   -.289E+00 -.176E-01 -.208E+01   0.666E-03 -.693E-04 -.918E-03
   -.292E+02 0.228E+02 -.214E+04   0.292E+02 -.230E+02 0.214E+04   0.717E-01 0.149E+00 -.163E+00   -.432E-03 0.445E-03 -.122E-02
   0.662E+02 0.513E+02 -.205E+04   -.666E+02 -.518E+02 0.205E+04   0.344E+00 0.454E+00 0.404E+00   0.117E-03 0.318E-03 -.199E-02
   0.391E+02 -.258E+02 -.213E+04   -.392E+02 0.260E+02 0.213E+04   0.155E+00 -.218E+00 -.199E-01   0.502E-03 -.712E-03 -.130E-02
   0.252E+02 -.127E+03 -.207E+04   -.255E+02 0.127E+03 0.207E+04   0.295E+00 0.334E-01 -.215E+01   0.950E-04 0.104E-02 -.352E-03
   -.550E+02 -.547E+02 -.209E+04   0.552E+02 0.551E+02 0.208E+04   -.150E+00 -.343E+00 0.378E+00   -.850E-03 -.206E-03 -.139E-02
   0.101E+02 0.463E+02 -.216E+04   -.101E+02 -.463E+02 0.216E+04   -.265E-01 -.182E-01 -.157E+00   -.379E-03 0.635E-03 -.168E-02
   -.129E+02 0.522E+01 -.218E+04   0.128E+02 -.508E+01 0.218E+04   0.483E-01 -.145E+00 -.397E+00   0.298E-03 0.266E-04 -.148E-02
   0.599E+00 -.169E+02 -.219E+04   -.734E+00 0.169E+02 0.219E+04   0.137E+00 -.241E-01 -.286E+00   -.680E-04 -.852E-03 -.142E-02
   0.923E+02 -.415E+02 -.104E+04   -.923E+02 0.413E+02 0.104E+04   -.296E-01 0.194E+00 -.178E+00   -.422E-04 -.250E-04 -.192E-03
   0.135E+03 -.540E+02 -.103E+04   -.136E+03 0.541E+02 0.103E+04   0.904E+00 -.839E-01 0.219E-01   -.162E-03 -.283E-03 -.136E-03
   0.802E+01 -.121E+03 -.104E+04   -.853E+01 0.121E+03 0.104E+04   0.507E+00 -.656E-01 -.117E+01   -.208E-03 -.176E-05 -.263E-03
   -.641E+02 0.218E+02 -.102E+04   0.640E+02 -.222E+02 0.102E+04   0.407E-01 0.450E+00 -.962E+00   0.576E-04 0.137E-03 -.249E-03
   -.169E+02 0.157E+03 -.103E+04   0.167E+02 -.158E+03 0.103E+04   0.243E+00 0.815E+00 0.242E-01   -.210E-03 -.101E-03 -.657E-04
   -.951E+00 0.792E+02 -.105E+04   0.765E+00 -.792E+02 0.105E+04   0.200E+00 -.949E-01 -.156E+00   -.339E-03 -.889E-04 0.224E-04
   0.632E+02 0.126E+02 -.257E+03   -.681E+02 -.141E+02 0.259E+03   0.492E+01 0.149E+01 -.210E+01   0.913E-05 0.195E-05 -.538E-04
   -.507E+01 -.566E+02 -.267E+03   0.664E+01 0.611E+02 0.269E+03   -.156E+01 -.442E+01 -.294E+01   -.331E-04 -.256E-04 -.401E-04
   0.493E+02 -.518E+02 -.263E+03   -.528E+02 0.562E+02 0.262E+03   0.352E+01 -.434E+01 0.447E+00   -.407E-04 -.355E-04 -.236E-04
   0.499E+02 0.381E+02 -.244E+03   -.524E+02 -.421E+02 0.241E+03   0.252E+01 0.407E+01 0.261E+01   -.996E-05 -.125E-04 0.198E-04
   -.202E+02 -.727E+02 -.287E+03   0.223E+02 0.775E+02 0.289E+03   -.206E+01 -.480E+01 -.201E+01   -.642E-04 -.601E-05 -.656E-04
   0.412E+02 0.542E+02 -.241E+03   -.452E+02 -.568E+02 0.238E+03   0.399E+01 0.270E+01 0.291E+01   -.135E-03 -.565E-04 -.849E-04
   -.441E+02 0.609E+02 -.267E+03   0.481E+02 -.647E+02 0.268E+03   -.405E+01 0.380E+01 -.718E+00   0.938E-04 -.128E-03 -.184E-06
   -.450E+02 -.653E+01 -.270E+03   0.491E+02 0.808E+01 0.273E+03   -.417E+01 -.158E+01 -.335E+01   -.582E-04 -.942E-05 -.405E-04
   0.253E+02 0.583E+02 -.257E+03   -.275E+02 -.627E+02 0.259E+03   0.228E+01 0.441E+01 -.252E+01   -.144E-04 0.368E-04 -.628E-04
   -.140E+03 -.391E+02 -.109E+04   0.141E+03 0.389E+02 0.109E+04   -.533E+00 0.117E+00 0.590E+00   0.995E-04 0.917E-04 -.738E-04
   -.206E+02 -.249E+02 -.301E+03   0.200E+02 0.263E+02 0.307E+03   0.636E+00 -.142E+01 -.517E+01   0.230E-04 0.199E-05 -.135E-03
   -.551E+02 0.363E+02 -.269E+03   0.591E+02 -.403E+02 0.269E+03   -.396E+01 0.398E+01 0.224E+00   -.583E-04 0.816E-04 -.226E-04
   -.369E+02 -.501E+02 -.257E+03   0.389E+02 0.545E+02 0.255E+03   -.200E+01 -.444E+01 0.251E+01   0.166E-05 -.692E-04 0.187E-04
   -.153E+01 -.849E+00 0.147E+02   0.234E-12 0.497E-13 -.327E-11   0.153E+01 0.852E+00 -.147E+02   -.865E-03 0.117E-03 0.292E-01

 POSITION                                       TOTAL-FORCE (eV/Angst)
      0.00000      0.00000     10.00000        -0.001373     -0.005585     -0.188959
      2.81853      0.00000     10.00000         0.047423      0.005683     -0.168572
      5.63706      0.00000     10.00000        -0.012161     -0.018055     -0.263272
      1.40926      2.44092     10.00000         0.037417     -0.015255     -0.185486
      4.22779      2.44092     10.00000         0.001364     -0.008709     -0.275080
      7.04632      2.44092     10.00000        -0.006012     -0.023053     -0.171886
      2.81853      4.88183     10.00000         0.009985     -0.018978     -0.190834
      5.63706      4.88183     10.00000         0.007412     -0.028340     -0.198811
      8.45558      4.88183     10.00000         0.022136      0.012801     -0.200536
      1.40926      0.81364     12.30132        -0.014748      0.097163      0.356593
      4.22779      0.81364     12.30132        -0.061751     -0.010091      0.102515
      7.04632      0.81364     12.30132        -0.014944      0.014929      0.048174
      2.81853      3.25455     12.30132        -0.056965     -0.055624      0.196057
      5.63705      3.25455     12.30132        -0.030816      0.019405      0.010646
      8.45558      3.25455     12.30132         0.024209      0.033799      0.429196
      4.22779      5.69547     12.30132        -0.006144      0.029972      0.068495
      7.04632      5.69547     12.30132         0.048958      0.033040      0.320728
      9.86485      5.69547     12.30132        -0.105044      0.035996      0.196915
      2.75958      1.66103     14.63812         0.010235     -0.006248      0.031703
      5.59767      1.63813     14.56758        -0.010889     -0.012018      0.017642
      8.44996      1.66691     14.63192        -0.021579     -0.012853      0.030667
      4.19752      4.08460     14.57616         0.007197     -0.005213      0.021322
      7.03248      4.10162     14.61128        -0.022115     -0.022194      0.021044
      9.82237      4.08238     14.63618         0.020445      0.011781      0.001952
      5.60863      6.53889     14.59250         0.006308     -0.002532      0.007948
      8.41799      6.50209     14.64428         0.004912      0.003902      0.040883
     11.24456      6.53900     14.58059         0.003398      0.006313      0.021035
      9.79425      2.52883     17.22495         0.000881     -0.004798      0.001393
      4.15147      2.47290     16.91071         0.004317     -0.007422      0.002733
      6.94755      2.45483     16.87028        -0.018530     -0.016223     -0.012901
      5.55891      4.93297     16.89347        -0.009370      0.013603      0.004995
      8.37152      4.88735     17.14018        -0.004790     -0.021637     -0.014683
     11.21133      4.94190     16.88092         0.008500      0.005402     -0.028719
      8.39123      0.05165     16.92179         0.006272     -0.015766      0.017117
      2.74017      0.05222     16.94996        -0.016297     -0.008801      0.006196
      5.55356      0.03387     16.92548         0.001191     -0.003187      0.014248
      7.34370      3.55516     21.29984         0.005486      0.020336      0.006826
      7.14271      3.96681     19.82032         0.033016      0.019298     -0.002634
      8.49797      4.28994     19.19292         0.003652      0.007284      0.009057
      9.50497      3.15679     19.29823         0.000921     -0.015417      0.004293
      8.95725      1.94628     20.07476        -0.006976      0.021007      0.003304
      8.38186      2.40788     21.44490         0.012818     -0.038040      0.018984
      6.36623      3.25381     21.71141         0.012240     -0.001889     -0.007826
      7.66512      4.43805     21.87830         0.013136     -0.007402     -0.021226
      6.45617      4.82519     19.74205         0.026271      0.023040      0.009058
      6.65304      3.12994     19.28583         0.007231      0.014543     -0.001892
      8.91051      5.22757     19.60555         0.020835      0.015994     -0.004215
      8.16372      1.43360     19.50874        -0.006791      0.018586     -0.012453
      1.30565      1.20855     20.22717        -0.001253     -0.011639     -0.014090
      9.21044      2.73021     22.09440        -0.012492     -0.028717      0.004960
      7.92606      1.53354     21.93657         0.004120     -0.000726     -0.027824
      2.38968      3.62444     19.87558         0.013919     -0.010922      0.003419
     10.69656      3.90946     20.93560         0.014822     -0.017232     -0.004791
      3.15929      2.83890     19.83586        -0.004652     -0.006629     -0.025608
      2.77603      4.51875     19.35470         0.004666     -0.002679     -0.007800
    total drift:                                0.001536      0.002665      0.005607

  FREE ENERGIE OF THE ION-ELECTRON SYSTEM (eV)
  free  energy   TOTEN  =      -253.45017704 eV

  energy  without entropy=     -253.41056342  energy(sigma->0) =     -253.44027363

 d Force = 0.6243169E-03[ 0.498E-03, 0.751E-03]  d Energy = 0.6284683E-03-0.415E-05
 d Force = 0.5886161E+01[ 0.589E+01, 0.589E+01]  d Ewald  = 0.5886160E+01 0.932E-06

 Conjugate gradient step on ions:
 trial-energy change:   -0.000628  1 .order   -0.000624   -0.000751   -0.000498
  (g-gl).g = 0.430E-03      g.g   = 0.386E-03  gl.gl    = 0.173E-02
 g(Force)  = 0.386E-03   g(Stress)= 0.000E+00 ortho     =-0.629E-04
 gamma     =   0.24946
 trial     =   2.02613
 opt step  =   5.20524  (harmonic =   6.00866) maximal distance =0.00257977
 next E    =  -253.450584   (d E  =  -0.00103)

 reached required accuracy - stopping structural energy minimisation