 vasp.5.4.4.18Apr17-6-g9f103f2a35 (build Sep 11 2020 00:39:59) complex

 executed on           VASP@albus date 2021.05.30  10:31:39

 INCAR:
 POTCAR:   PAW_PBE Pt 05Jan2001
 POTCAR:   PAW_PBE C 08Apr2002
 POTCAR:   PAW_PBE H 15Jun2001

 POTCAR:   PAW_PBE Pt 05Jan2001
   VRHFIN =Pt: s1d9

   TITEL  = PAW_PBE Pt 05Jan2001
   POMASS =  195.080; ZVAL   =   10.000    mass and valenz
   ENMAX  =  230.283; ENMIN  =  172.712 eV
   QCUT   =   -4.114; QGAM   =    8.228    optimization parameters

   Description
     l     E      TYP  RCUT    TYP  RCUT
     2   .000     23  2.500
     2   .000     23  2.500
     0   .000     23  2.500
     0   .000     23  2.500
     1  -.200     23  2.500
     1  1.500     23  2.500
     3   .000      7   .000

 POTCAR:   PAW_PBE C 08Apr2002
   VRHFIN =C: s2p2

   TITEL  = PAW_PBE C 08Apr2002
   POMASS =   12.011; ZVAL   =    4.000    mass and valenz
   ENMAX  =  400.000; ENMIN  =  300.000 eV
   QCUT   =   -5.516; QGAM   =   11.032    optimization parameters

[...]

 POTCAR:   PAW_PBE H 15Jun2001
   VRHFIN =H: ultrasoft test

   TITEL  = PAW_PBE H 15Jun2001
   POMASS =    1.000; ZVAL   =    1.000    mass and valenz
   ENMAX  =  250.000; ENMIN  =  200.000 eV
   QCUT   =   -5.749; QGAM   =   11.498    optimization parameters

   Description
     l     E      TYP  RCUT    TYP  RCUT
     0   .000     23  1.100
     0   .500     23  1.100
     1  -.300     23  1.100

 Optimization of the real space projectors (new method)

 maximal supplied QI-value         = 15.12
 optimisation between [QCUT,QGAM] = [ 10.13, 20.26] = [ 28.73,114.92] Ry
 Optimized for a Real-space Cutoff    1.52 Angstroem

   l    n(q)    QCUT    max X(q) W(low)/X(q) W(high)/X(q)  e(spline)
   2      8    10.129     3.643    0.62E-04    0.19E-04    0.48E-07
   2      8    10.129    46.462    0.29E-03    0.41E-03    0.31E-06
   0      9    10.129    13.796    0.15E-04    0.14E-04    0.48E-08
   0      9    10.129    57.669    0.22E-03    0.23E-03    0.89E-07
   1      9    10.129     7.440    0.50E-04    0.32E-04    0.34E-07
   1      9    10.129    10.255    0.23E-03    0.57E-04    0.13E-06
 Optimization of the real space projectors (new method)

[...]

   l    n(q)    QCUT    max X(q) W(low)/X(q) W(high)/X(q)  e(spline)
   0      8    10.053     5.582    0.38E-04    0.40E-04    0.62E-07
   0      8    10.053    69.432    0.43E-03    0.68E-03    0.18E-06
   1      7    10.053     2.780    0.81E-04    0.10E-03    0.11E-06
   1      7    10.053     4.549    0.23E-03    0.15E-03    0.21E-06
 Optimization of the real space projectors (new method)

 maximal supplied QI-value         = 34.20
 optimisation between [QCUT,QGAM] = [  9.92, 20.18] = [ 27.55,114.04] Ry
 Optimized for a Real-space Cutoff    1.27 Angstroem

   l    n(q)    QCUT    max X(q) W(low)/X(q) W(high)/X(q)  e(spline)
   0      8     9.919     4.436    0.78E-04    0.69E-04    0.53E-07
   0      8     9.919    16.131    0.45E-03    0.25E-03    0.29E-06
   1      7     9.919     4.654    0.17E-03    0.70E-03    0.31E-06

 PAW_PBE Pt 05Jan2001                   :
 PAW_PBE C 08Apr2002                    :
 PAW_PBE H 15Jun2001                    :

 POSCAR: Pt	C	H	C	H
  positions in direct lattice
  velocities in cartesian coordinates
 exchange correlation table for  LEXCH =       41
   RHO(1)=    0.500       N(1)  =     2000
   RHO(2)=  100.500       N(2)  =     4000

 ion  position               nearest neighbor table
   1  0.000  0.000  0.372-   2 2.82   3 2.82   6 2.82   4 2.82   8 2.82   7 2.82  10 2.82  12 2.82
                            16 2.82
   2  0.333  0.000  0.372-   4 2.82   1 2.82   8 2.82   5 2.82   9 2.82   3 2.82  10 2.82  17 2.82
                            11 2.82
   3  0.667  0.000  0.372-   1 2.82   7 2.82   5 2.82   6 2.82   9 2.82  12 2.82   2 2.82  11 2.82
                            18 2.82
   4  1.000  0.333  0.372-   9 2.82   2 2.82   7 2.82   1 2.82   6 2.82   5 2.82  10 2.82  13 2.82
                            15 2.82
   5  0.333  0.333  0.372-   6 2.82   8 2.82   3 2.82   7 2.82   2 2.82   4 2.82  14 2.82  11 2.82
                            13 2.82
   6  0.667  0.333  0.372-   5 2.82   8 2.82   1 2.82   3 2.82   4 2.82  15 2.82   9 2.82  12 2.82
                            14 2.82
   7  1.000  0.667  0.372-   9 2.82   3 2.82   4 2.82   5 2.82   8 2.82   1 2.82  16 2.82  13 2.82
                            18 2.82
   8  0.333  0.667  0.372-   5 2.82   6 2.82   1 2.82   2 2.82   7 2.82  17 2.82   9 2.82  16 2.82
                            14 2.82
   9  0.667  0.667  0.372-   7 2.82   4 2.82  18 2.82   3 2.82   6 2.82   2 2.82   8 2.82  15 2.82
                            17 2.82
  10  0.111  0.111  0.457-  13 2.82  15 2.82  12 2.82  17 2.82  11 2.82   4 2.82   1 2.82   2 2.82
                            16 2.82  19 2.82  21 2.82  25 2.87
  11  0.444  0.111  0.457-  19 2.82  12 2.82  14 2.82  18 2.82  13 2.82  10 2.82   5 2.82   3 2.82
                            17 2.82   2 2.82  20 2.83  26 2.88
  12  0.778  0.111  0.457-  27 2.81  20 2.82  11 2.82  15 2.82  14 2.82  10 2.82  16 2.82   3 2.82
                             6 2.82   1 2.82  18 2.82  21 2.82
  13  0.111  0.444  0.457-  22 2.82  16 2.82  14 2.82  11 2.82  10 2.82  18 2.82   7 2.82   4 2.82
                             5 2.82  15 2.82  24 2.82  19 2.85
  14  0.444  0.444  0.457-  22 2.80  15 2.82  11 2.82  16 2.82  12 2.82  17 2.82  13 2.82   5 2.82
                             8 2.82   6 2.82  20 2.83  23 2.84
  15  0.778  0.444  0.457-  24 2.81  17 2.82  14 2.82  12 2.82  18 2.82  10 2.82   6 2.82   9 2.82
                            13 2.82   4 2.82  21 2.83  23 2.84
  16  0.111  0.778  0.457-  27 2.80  22 2.82  13 2.82  14 2.82  17 2.82  12 2.82   7 2.82  10 2.82
                             8 2.82  18 2.82   1 2.82  25 2.86
  17  0.444  0.778  0.457-  18 2.82  15 2.82  14 2.82  16 2.82  10 2.82   8 2.82  11 2.82   9 2.82
                             2 2.82  25 2.84  23 2.85  26 2.85
  18  0.778  0.778  0.457-  27 2.81  17 2.82  15 2.82  11 2.82   9 2.82  13 2.82  16 2.82   3 2.82
                            12 2.82   7 2.82  24 2.82  26 2.86
  19  0.225  0.217  0.543-  26 2.80  25 2.80  28 2.81  29 2.81  11 2.82  10 2.82  20 2.82  21 2.83
                            22 2.85  24 2.85  13 2.85  35 2.93
  20  0.557  0.221  0.543-  21 2.81  27 2.82  22 2.82  12 2.82  23 2.82  19 2.82  11 2.83  14 2.83
                            36 2.83  29 2.83  26 2.84  30 2.87
  21  0.889  0.221  0.543-  20 2.81  23 2.81  24 2.81  27 2.82  12 2.82  10 2.82  19 2.83  15 2.83
                            34 2.83  28 2.84  25 2.84  30 2.87
  22  0.224  0.554  0.542-  14 2.80  23 2.81  25 2.81  13 2.82  20 2.82  16 2.82  27 2.82  24 2.84
                            29 2.84  19 2.85  33 2.85  31 2.86
  23  0.556  0.555  0.544-  26 2.80  25 2.80  24 2.81  22 2.81  21 2.81  20 2.82  15 2.84  14 2.84
                            17 2.85  30 2.87  31 2.90  32 2.92
  24  0.888  0.555  0.543-  23 2.81  26 2.81  15 2.81  21 2.81  13 2.82  18 2.82  27 2.82  28 2.84
                            22 2.84  33 2.85  19 2.85  32 2.87
  25  0.225  0.886  0.544-  26 2.79  19 2.80  23 2.80  22 2.81  34 2.83  31 2.83  27 2.83  21 2.84
                            17 2.84  16 2.86  10 2.87  35 2.96
  26  0.556  0.886  0.545-  25 2.79  23 2.80  19 2.80  24 2.81  36 2.82  27 2.83  20 2.84  32 2.84
                            17 2.85  18 2.86  11 2.88  35 2.95
  27  0.890  0.888  0.542-  16 2.80  18 2.81  12 2.81  20 2.82  21 2.82  24 2.82  22 2.82  26 2.83
                            25 2.83  34 2.84  33 2.84  36 2.84
  28  0.005  0.331  0.629-  35 2.76  29 2.77  19 2.81  32 2.82  33 2.82  34 2.83  21 2.84  24 2.84
                            30 2.84
  29  0.332  0.331  0.629-  35 2.76  28 2.77  19 2.81  31 2.82  33 2.83  36 2.83  20 2.83  22 2.84
                            30 2.84
  30  0.669  0.329  0.631-  38 2.24  34 2.78  36 2.78  28 2.84  29 2.84  21 2.87  23 2.87  20 2.87
                            32 2.89  31 2.89
  31  0.325  0.668  0.631-  39 2.23  37 2.60  33 2.75  34 2.79  29 2.82  25 2.83  22 2.86  35 2.88
                            30 2.89  23 2.90  32 2.96
  32  0.675  0.668  0.632-  42 2.23  40 2.57  33 2.75  36 2.79  28 2.82  26 2.84  24 2.87  30 2.89
                            35 2.89  23 2.92  31 2.96
  33  0.000  0.667  0.629-  31 2.75  32 2.75  34 2.80  36 2.80  28 2.82  29 2.83  27 2.84  24 2.85
                            22 2.85
  34  0.997  0.000  0.629-  36 2.76  30 2.78  31 2.79  33 2.80  25 2.83  21 2.83  28 2.83  27 2.84
                            35 2.85
  35  0.330  0.006  0.636-  43 2.15  41 2.63  28 2.76  29 2.76  34 2.85  36 2.86  31 2.88  32 2.89
                            19 2.93  26 2.95  25 2.96
  36  0.671  0.000  0.629-  34 2.76  30 2.78  32 2.79  33 2.80  26 2.82  29 2.83  20 2.83  27 2.84
                            35 2.86
  37  0.440  0.494  0.715-  44 1.09  39 1.43  38 1.44  31 2.60
  38  0.637  0.394  0.713-  45 1.09  37 1.44  40 1.45  30 2.24
  39  0.339  0.689  0.713-  46 1.09  37 1.43  41 1.46  31 2.23
  40  0.730  0.499  0.716-  47 1.09  42 1.43  38 1.45  32 2.57
  41  0.433  0.793  0.715-  43 1.44  42 1.46  39 1.46  35 2.63
  42  0.632  0.693  0.714-  48 1.09  40 1.43  41 1.46  32 2.23
  43  0.333  0.990  0.716-  49 1.09  50 1.09  41 1.44  35 2.15
  44  0.368  0.420  0.723-  37 1.09
  45  0.708  0.255  0.727-  38 1.09
  46  0.196  0.759  0.725-  39 1.09
  47  0.876  0.428  0.724-  40 1.09
  48  0.701  0.767  0.726-  42 1.09
  49  0.406  0.057  0.730-  43 1.09
  50  0.191  0.053  0.728-  43 1.09

IMPORTANT INFORMATION: All symmetrisations will be switched off!
NOSYMM: (Re-)initialisation of all symmetry stuff for point group C_1.

 KPOINTS: Automatic mesh

Automatic generation of k-mesh.
Space group operators:
 irot       det(A)        alpha          n_x          n_y          n_z        tau_x        tau_y        tau_z
    1     1.000000     0.000001     1.000000     0.000000     0.000000     0.000000     0.000000     0.000000

 Subroutine IBZKPT returns following result:

 Found     34 irreducible k-points:

 Following reciprocal coordinates:
            Coordinates               Weight
  0.000000  0.000000  0.000000      1.000000
  0.125000 -0.000000  0.000000      2.000000
  0.250000 -0.000000  0.000000      2.000000
  0.375000 -0.000000  0.000000      2.000000
  0.500000 -0.000000  0.000000      1.000000
  0.000000  0.125000  0.000000      2.000000
  0.125000  0.125000  0.000000      2.000000
  0.250000  0.125000  0.000000      2.000000
  0.375000  0.125000  0.000000      2.000000
  0.500000  0.125000  0.000000      2.000000
 -0.375000  0.125000  0.000000      2.000000
 -0.250000  0.125000  0.000000      2.000000
 -0.125000  0.125000  0.000000      2.000000
  0.000000  0.250000  0.000000      2.000000
  0.125000  0.250000  0.000000      2.000000
  0.250000  0.250000  0.000000      2.000000
  0.375000  0.250000  0.000000      2.000000
  0.500000  0.250000  0.000000      2.000000
 -0.375000  0.250000  0.000000      2.000000
 -0.250000  0.250000  0.000000      2.000000
 -0.125000  0.250000  0.000000      2.000000
  0.000000  0.375000  0.000000      2.000000
  0.125000  0.375000  0.000000      2.000000
[...]
  atomic energy  EATOM  =     27444.26252098
  Solvation  Ediel_sol  =         0.00000000
  free energy    TOTEN  =      -234.47174112 eV

  energy without entropy =     -234.43780457  energy(sigma->0) =     -234.46325698

 average (electrostatic) potential at core
  the test charge radii are     1.2059  0.6991  0.5201
  (the norm of the test charge is              1.0000)
       1 -56.6762       2 -56.6441       3 -56.6771       4 -56.6425       5 -56.6393
       6 -56.6825       7 -56.6216       8 -56.6652       9 -56.6669      10 -57.0902
      11 -57.0851      12 -57.1173      13 -57.0469      14 -57.1121      15 -57.1126
      16 -57.0783      17 -57.0778      18 -57.0739      19 -57.1111      20 -57.0615
      21 -57.0652      22 -57.0642      23 -56.9908      24 -57.0594      25 -57.0431
      26 -57.0346      27 -57.0512      28 -56.6603      29 -56.6623      30 -57.0561
      31 -57.1393      32 -57.1352      33 -56.6465      34 -56.6289      35 -57.1424
      36 -56.6229      37 -56.1262      38 -55.8147      39 -55.8951      40 -56.1274
      41 -56.3872      42 -55.9101      43 -55.4291      44 -39.6365      45 -39.4761
      46 -39.4662      47 -39.6298      48 -39.4861      49 -39.1748      50 -39.1599

 E-fermi :  -0.3768     XC(G=0):  -5.9598     alpha+bet : -4.8583

[...]

 k-point    34 :       0.5000    0.5000    0.0000
  band No.  band energies     occupation
      1     -18.3477      2.00000
      2     -16.2349      2.00000
      3     -15.6956      2.00000
      4     -13.7009      2.00000
      5     -12.0306      2.00000
      6     -11.3377      2.00000
      7      -9.4535      2.00000
      8      -8.5587      2.00000
      9      -8.4930      2.00000
     10      -8.4672      2.00000
     11      -8.3829      2.00000
     12      -7.8743      2.00000
     13      -7.5064      2.00000
     14      -7.3386      2.00000
     15      -7.1838      2.00000
     16      -7.0773      2.00000
     17      -7.0701      2.00000
     18      -6.8849      2.00000
     19      -6.6750      2.00000
     20      -6.5058      2.00000
     21      -6.4437      2.00000
     22      -6.4105      2.00000
     23      -6.3177      2.00000
     24      -6.2552      2.00000
     25      -6.1588      2.00000
     26      -6.1431      2.00000
     27      -6.1318      2.00000
     28      -6.1097      2.00000
     29      -6.1057      2.00000
     30      -6.0774      2.00000
     31      -6.0640      2.00000
     32      -6.0218      2.00000
     33      -5.9577      2.00000
     34      -5.9386      2.00000
     35      -5.9360      2.00000
     36      -5.9212      2.00000
     37      -5.8958      2.00000
     38      -5.8179      2.00000
     39      -5.7590      2.00000
     40      -5.6013      2.00000
     41      -5.5807      2.00000
     42      -5.5673      2.00000
     43      -5.5619      2.00000
     44      -5.5349      2.00000
     45      -5.4068      2.00000
     46      -5.3771      2.00000
     47      -5.3689      2.00000
     48      -5.3500      2.00000
     49      -5.3166      2.00000
     50      -5.2590      2.00000
     51      -5.2230      2.00000
     52      -5.1574      2.00000
     53      -5.1485      2.00000
     54      -5.1445      2.00000
     55      -5.0972      2.00000
     56      -5.0654      2.00000
     57      -5.0545      2.00000
     58      -5.0228      2.00000
     59      -4.9584      2.00000
     60      -4.8790      2.00000
[...]
    224       2.3520      0.00000
    225       2.3739      0.00000
    226       2.4533      0.00000
    227       2.5276      0.00000
    228       2.7186      0.00000
    229       2.7862      0.00000
    230       3.0165      0.00000
    231       3.0306      0.00000
    232       3.1206      0.00000
    233       3.3562      0.00000
    234       3.4650      0.00000
    235       3.4957      0.00000
    236       3.6791      0.00000
    237       4.0799      0.00000
    238       4.1551      0.00000

 soft charge-density along one line, spin component           1
         0         1         2         3         4         5         6         7         8         9
 total charge-density along one line

------------------------ aborting loop because EDIFF is reached ----------------------------------------

 VOLUME and BASIS-vectors are now :
  energy-cutoff  :      396.00
  volume of cell :     1665.84
      direct lattice vectors                 reciprocal lattice vectors
     8.455582619  0.000000000  0.000000000     0.118265062 -0.068280376  0.000000000
     4.227791797  7.322749070  0.000000000     0.000000000  0.136560736  0.000000000
     0.000000000  0.000000000 26.903955460     0.000000000  0.000000000  0.037169256

  length of vectors
     8.455582619  8.455582619 26.903955460     0.136560736  0.136560736  0.037169256

 FORCES acting on ions
    electron-ion (+dipol)            ewald-force                    non-local-force                 convergence-correction
   -.440E+00 0.237E-01 0.274E+04   0.497E+00 -.121E-01 -.274E+04   -.247E-01 0.492E-02 0.117E+00   -.150E-03 0.866E-03 0.233E-02
   -.862E-01 0.108E+00 0.273E+04   0.861E-01 -.134E+00 -.273E+04   -.374E-03 0.565E-01 0.245E+00   0.377E-03 -.572E-03 0.224E-02
   0.521E+00 0.987E-01 0.274E+04   -.583E+00 -.842E-01 -.274E+04   0.267E-01 0.547E-02 0.113E+00   -.220E-03 -.110E-02 0.246E-02
   -.196E+00 0.377E+00 0.274E+04   0.192E+00 -.334E+00 -.274E+04   0.229E-01 -.324E-01 0.224E+00   -.114E-02 0.606E-03 0.280E-02
   0.218E+00 0.479E+00 0.274E+04   -.210E+00 -.433E+00 -.274E+04   -.237E-01 -.315E-01 0.225E+00   -.423E-03 -.729E-03 0.160E-02
   -.237E-01 -.313E-01 0.274E+04   0.185E-01 0.855E-01 -.274E+04   0.464E-04 -.314E-01 0.821E-01   0.155E-02 0.259E-03 0.233E-02
   0.103E+00 -.337E-01 0.274E+04   -.958E-01 0.364E-02 -.274E+04   -.277E-02 -.189E-02 0.202E+00   -.189E-02 0.318E-03 0.230E-02
   -.371E+00 -.457E+00 0.274E+04   0.357E+00 0.429E+00 -.274E+04   -.588E-02 0.203E-01 0.947E-01   0.141E-02 0.521E-03 0.170E-02
   0.267E+00 -.498E+00 0.274E+04   -.261E+00 0.474E+00 -.274E+04   0.861E-02 0.202E-01 0.933E-01   0.482E-03 -.193E-03 0.301E-02
   -.169E+01 0.287E+01 0.110E+04   0.175E+01 -.292E+01 -.110E+04   0.289E-01 -.503E-01 0.676E-02   -.631E-03 0.114E-02 0.386E-02
   0.138E+01 0.393E+01 0.110E+04   -.143E+01 -.398E+01 -.110E+04   -.234E-01 -.536E-01 0.159E-01   -.303E-03 -.180E-02 0.341E-02
   0.150E+00 0.395E-01 0.111E+04   -.155E+00 -.619E-01 -.111E+04   0.711E-02 0.203E-01 0.137E-01   0.948E-03 0.479E-04 0.176E-02
   0.540E+00 0.325E+01 0.110E+04   -.540E+00 -.323E+01 -.110E+04   -.798E-03 -.364E-01 -.213E-01   -.300E-02 -.156E-03 0.433E-02
   -.139E+01 -.943E-01 0.111E+04   0.137E+01 0.783E-01 -.111E+04   0.241E-01 0.135E-02 0.523E-01   0.161E-02 0.362E-03 0.351E-02
   0.797E+00 -.554E+00 0.111E+04   -.779E+00 0.545E+00 -.111E+04   -.147E-01 0.198E-02 0.533E-01   0.137E-02 0.919E-03 0.399E-02
   -.392E+01 -.246E+01 0.111E+04   0.390E+01 0.246E+01 -.111E+04   0.490E-01 -.170E-01 0.163E-01   0.823E-04 0.109E-02 0.281E-02
   -.946E+00 -.308E+01 0.110E+04   0.956E+00 0.315E+01 -.110E+04   0.300E-02 0.312E-02 0.168E+00   0.199E-02 -.458E-03 0.452E-02
   0.480E+01 -.251E+01 0.110E+04   -.478E+01 0.251E+01 -.110E+04   -.432E-01 -.215E-01 0.266E-01   -.208E-02 -.115E-02 0.266E-02
   0.117E+00 -.371E+00 -.535E+03   -.107E+00 -.298E-01 0.535E+03   -.102E-01 0.374E+00 0.175E+00   -.191E-02 0.180E-02 0.825E-02
   0.586E+01 0.629E+01 -.528E+03   -.574E+01 -.614E+01 0.528E+03   -.814E-01 -.155E+00 0.242E-02   -.131E-02 0.255E-03 0.109E-01
   -.587E+01 0.557E+01 -.528E+03   0.574E+01 -.542E+01 0.528E+03   0.825E-01 -.164E+00 -.669E-04   0.317E-02 0.165E-02 0.103E-01
   0.110E+02 0.358E+01 -.519E+03   -.108E+02 -.352E+01 0.519E+03   -.212E+00 -.446E-01 0.550E-01   -.129E-02 -.143E-02 0.112E-01
   -.924E+00 0.109E+01 -.533E+03   0.930E+00 -.108E+01 0.533E+03   -.713E-02 -.435E-01 -.205E+00   0.182E-02 0.927E-03 0.852E-02
   -.101E+02 0.297E+01 -.523E+03   0.988E+01 -.289E+01 0.523E+03   0.225E+00 -.594E-01 0.506E-01   -.632E-03 -.286E-02 0.901E-02
   0.869E+00 -.121E+02 -.548E+03   -.578E+00 0.120E+02 0.548E+03   -.304E+00 0.101E+00 -.226E+00   0.679E-03 0.829E-03 0.938E-02
   -.170E+01 -.114E+02 -.555E+03   0.140E+01 0.113E+02 0.556E+03   0.304E+00 0.102E+00 -.254E+00   -.730E-03 -.997E-03 0.828E-02
   0.769E+00 0.644E+00 -.522E+03   -.778E+00 -.715E+00 0.521E+03   0.646E-02 0.594E-01 0.200E+00   -.539E-04 -.524E-03 0.118E-01
   -.329E+02 0.739E+01 -.218E+04   0.337E+02 -.791E+01 0.218E+04   -.733E+00 0.495E+00 0.247E+00   -.439E-02 0.256E-02 -.168E-02
   0.337E+02 0.950E+01 -.218E+04   -.345E+02 -.101E+02 0.218E+04   0.754E+00 0.540E+00 0.284E+00   0.183E-02 0.245E-02 -.225E-02
   -.316E+00 0.932E+02 -.208E+04   0.360E+00 -.948E+02 0.208E+04   -.513E-01 0.154E+01 0.967E+00   0.230E-02 0.459E-03 0.162E-02
   0.816E+02 -.960E+01 -.203E+04   -.830E+02 0.102E+02 0.203E+04   0.144E+01 -.579E+00 0.190E+01   -.774E-03 0.786E-03 0.240E-02
   -.858E+02 -.114E+02 -.204E+04   0.874E+02 0.120E+02 0.204E+04   -.149E+01 -.594E+00 0.188E+01   0.687E-03 -.266E-02 -.131E-02
   0.146E+01 -.355E+01 -.222E+04   -.148E+01 0.362E+01 0.222E+04   0.955E-02 -.809E-01 -.376E+00   0.447E-04 0.206E-02 0.206E-03
   0.344E+02 -.646E+01 -.221E+04   -.347E+02 0.655E+01 0.221E+04   0.335E+00 -.569E-01 -.260E+00   -.159E-02 -.891E-03 0.291E-03
   -.387E+01 -.814E+02 -.214E+04   0.387E+01 0.834E+02 0.214E+04   -.987E-02 -.201E+01 -.667E+00   -.130E-02 -.283E-02 -.999E-03
   -.322E+02 -.550E+01 -.221E+04   0.325E+02 0.559E+01 0.221E+04   -.304E+00 -.565E-01 -.285E+00   0.248E-02 -.155E-02 -.448E-04
   0.120E+03 0.803E+02 -.119E+04   -.121E+03 -.813E+02 0.119E+04   0.690E+00 0.102E+01 -.343E+01   -.339E-04 0.243E-03 -.192E-02
   -.185E+01 0.140E+03 -.118E+04   0.190E+01 -.142E+03 0.118E+04   -.402E-01 0.204E+01 -.102E+01   0.886E-03 -.121E-02 -.148E-02
   0.131E+03 -.447E+02 -.119E+04   -.133E+03 0.460E+02 0.119E+04   0.176E+01 -.134E+01 -.197E+01   -.532E-03 0.194E-03 -.197E-02
   -.121E+03 0.782E+02 -.119E+04   0.122E+03 -.793E+02 0.119E+04   -.668E+00 0.107E+01 -.340E+01   0.695E-03 -.111E-02 -.203E-02
   0.147E+01 -.551E+02 -.119E+04   -.153E+01 0.559E+02 0.119E+04   0.426E-01 -.854E+00 -.350E+01   -.126E-02 -.131E-02 -.229E-02
   -.129E+03 -.489E+02 -.119E+04   0.131E+03 0.503E+02 0.119E+04   -.165E+01 -.141E+01 -.207E+01   -.667E-03 -.207E-02 -.934E-03
   0.222E+01 -.133E+03 -.119E+04   -.230E+01 0.135E+03 0.119E+04   0.801E-01 -.255E+01 -.894E+00   -.948E-03 0.397E-03 -.134E-02
   0.556E+02 0.314E+02 -.304E+03   -.606E+02 -.343E+02 0.305E+03   0.504E+01 0.295E+01 -.110E+01   -.716E-04 0.472E-04 -.387E-03
   -.598E+00 0.644E+02 -.311E+03   0.665E+00 -.698E+02 0.313E+03   -.634E-01 0.547E+01 -.202E+01   0.117E-03 0.130E-03 -.333E-03
   0.629E+02 -.275E+02 -.309E+03   -.678E+02 0.302E+02 0.310E+03   0.495E+01 -.273E+01 -.160E+01   0.309E-05 -.244E-04 -.403E-03
   -.565E+02 0.301E+02 -.305E+03   0.616E+02 -.329E+02 0.306E+03   -.510E+01 0.282E+01 -.118E+01   -.275E-03 0.999E-04 -.574E-03
   -.619E+02 -.293E+02 -.309E+03   0.668E+02 0.321E+02 0.311E+03   -.485E+01 -.288E+01 -.170E+01   0.472E-03 -.129E-04 -.459E-04
   -.423E+02 -.375E+02 -.310E+03   0.471E+02 0.402E+02 0.311E+03   -.473E+01 -.265E+01 -.194E+01   0.977E-04 0.258E-03 -.132E-03
   0.442E+02 -.361E+02 -.308E+03   -.491E+02 0.386E+02 0.310E+03   0.490E+01 -.252E+01 -.169E+01   -.401E-03 0.127E-03 -.238E-03
   -.328E+00 0.231E+01 0.223E+02   -.114E-12 0.497E-13 -.284E-12   0.337E+00 -.233E+01 -.223E+02   -.292E-02 -.425E-02 0.123E+00

 POSITION                                       TOTAL-FORCE (eV/Angst)
      0.00000      0.00000     10.00000         0.032457      0.017906     -0.157709
      2.81853      0.00000     10.00000        -0.000185      0.030494     -0.279947
      5.63706      0.00000     10.00000        -0.036380      0.019451     -0.155338
      9.86485      2.44092     10.00000         0.017279      0.012686     -0.274754
      4.22779      2.44092     10.00000        -0.015875      0.014924     -0.283585
      7.04632      2.44092     10.00000        -0.003717      0.023645     -0.174377
     11.27411      4.88183     10.00000         0.002076     -0.031075     -0.315665
      5.63706      4.88183     10.00000        -0.018472     -0.006758     -0.193728
      8.45558      4.88183     10.00000         0.015441     -0.003646     -0.188070
      1.40926      0.81364     12.30132         0.087350     -0.097936      0.368624
      4.22779      0.81364     12.30132        -0.081831     -0.110956      0.375089
      7.04632      0.81364     12.30132         0.003790     -0.001467      0.226953
      2.81853      3.25455     12.30132        -0.004060     -0.014127      0.160605
      5.63705      3.25455     12.30132         0.005277     -0.013753      0.254913
      8.45558      3.25455     12.30132         0.005035     -0.005603      0.270526
      4.22779      5.69547     12.30132         0.020175     -0.018397      0.167994
      7.04632      5.69547     12.30132         0.014520      0.073846      0.457609
      9.86485      5.69547     12.30132        -0.027682     -0.022167      0.196498
      2.82239      1.59060     14.61688        -0.002613     -0.024187     -0.061617
      5.64653      1.62006     14.60788         0.039496     -0.006459     -0.049418
      8.45185      1.62162     14.60816        -0.042750     -0.008607     -0.052170
      4.23915      4.05984     14.59401        -0.000991      0.020630     -0.046602
      7.04998      4.06173     14.63474         0.000980     -0.025834     -0.008699
      9.85580      4.06204     14.59930        -0.009118      0.022446     -0.041318
      5.65237      6.48914     14.64886        -0.011574      0.002724     -0.022870
      8.44484      6.48761     14.65980         0.009517     -0.003651     -0.013056
     11.27541      6.50064     14.58749        -0.002705     -0.011440     -0.084052
      1.43902      2.42373     16.91580         0.052549     -0.020866     -0.027799
      4.20913      2.42241     16.91611        -0.057422     -0.023006     -0.019086
      7.05228      2.41160     16.98271        -0.004599      0.013041      0.009450
      5.57231      4.89394     16.98330        -0.012814      0.016344     -0.040933
      8.52774      4.89164     17.00917         0.013695      0.012105     -0.050629
      2.82256      4.88414     16.92364        -0.010660     -0.003813     -0.015888
      8.42924      0.00210     16.92564        -0.000123      0.037891     -0.024680
      2.81960      0.04522     17.10863        -0.009147      0.053365     -0.027004
      5.67051      0.00198     16.93215        -0.011341      0.029584     -0.027806
      5.81369      3.61821     19.24216         0.020215      0.013466      0.062939
      7.05514      2.88701     19.17598         0.012066      0.016945      0.005097
      5.77863      5.04371     19.19404         0.000202      0.000077      0.001813
      8.27844      3.65260     19.25301        -0.014799     -0.011545      0.055205
      7.01710      5.80892     19.22735        -0.020513     -0.007536      0.096180
      8.27580      5.07759     19.21583        -0.002178     -0.012239     -0.011416
      6.99787      7.24942     19.25789         0.002591     -0.015802      0.019544
      4.88925      3.07505     19.44938         0.008338      0.009985      0.012427
      7.06737      1.86635     19.57026         0.003087      0.009161     -0.023496
      4.86327      5.55471     19.50554         0.010635      0.000599     -0.016685
      9.21274      3.13266     19.47531        -0.013481      0.014310     -0.006432
      9.17036      5.61310     19.54282         0.019834      0.013546     -0.025242
      3.67318      0.41468     19.63832         0.013519      0.013911     -0.020759
      1.83607      0.38989     19.59246         0.004906      0.007789     -0.000634
    total drift:                                0.006517     -0.028539      0.097872

  FREE ENERGIE OF THE ION-ELECTRON SYSTEM (eV)
  free  energy   TOTEN  =      -234.47174112 eV

  energy  without entropy=     -234.43780457  energy(sigma->0) =     -234.46325698

 d Force = 0.8482187E-03[ 0.774E-03, 0.923E-03]  d Energy = 0.8364455E-03 0.118E-04
 d Force =-0.4229408E+01[-0.423E+01,-0.423E+01]  d Ewald  =-0.4229407E+01-0.322E-06

 Steepest descent step on ions:
 trial-energy change:   -0.000836  1 .order   -0.000848   -0.000923   -0.000774
  (g-gl).g = 0.923E-03      g.g   = 0.923E-03  gl.gl    = 0.000E+00
 g(Force)  = 0.923E-03   g(Stress)= 0.000E+00 ortho     = 0.000E+00
 gamma     =   0.00000
 trial     =   1.00000
 opt step  =   4.00000  (harmonic =   6.19757) maximal distance =0.00415739
 next E    =  -234.473764   (d E  =  -0.00286)

 reached required accuracy - stopping structural energy minimisation
 writing wavefunctions