 vasp.5.4.4.18Apr17-6-g9f103f2a35 (build Jul  5 2023 12:04:10) complex
 executed on NVIDIA22.5_CrayMPICH date 2024.05.04  11:15:01

 INCAR:
 POTCAR:   PAW_PBE Pt 05Jan2001
 POTCAR:   PAW_PBE C 08Apr2002
 POTCAR:   PAW_PBE H 15Jun2001
 POTCAR:   PAW_PBE C 08Apr2002
 POTCAR:   PAW_PBE H 15Jun2001

 POTCAR:   PAW_PBE Pt 05Jan2001
   VRHFIN =Pt: s1d9

   TITEL  = PAW_PBE Pt 05Jan2001
   POMASS =  195.080; ZVAL   =   10.000    mass and valenz
   ENMAX  =  230.283; ENMIN  =  172.712 eV
   QCUT   =   -4.114; QGAM   =    8.228    optimization parameters

   Description
     l     E      TYP  RCUT    TYP  RCUT
     2   .000     23  2.500
     2   .000     23  2.500
     0   .000     23  2.500
     0   .000     23  2.500
     1  -.200     23  2.500
     1  1.500     23  2.500
     3   .000      7   .000

 POTCAR:   PAW_PBE C 08Apr2002
   VRHFIN =C: s2p2

   TITEL  = PAW_PBE C 08Apr2002
   POMASS =   12.011; ZVAL   =    4.000    mass and valenz
   ENMAX  =  400.000; ENMIN  =  300.000 eV
   QCUT   =   -5.516; QGAM   =   11.032    optimization parameters

[...]

 POTCAR:   PAW_PBE H 15Jun2001
   VRHFIN =H: ultrasoft test

   TITEL  = PAW_PBE H 15Jun2001
   POMASS =    1.000; ZVAL   =    1.000    mass and valenz
   ENMAX  =  250.000; ENMIN  =  200.000 eV
   QCUT   =   -5.749; QGAM   =   11.498    optimization parameters

[...]

 POTCAR:   PAW_PBE C 08Apr2002
   VRHFIN =C: s2p2

   TITEL  = PAW_PBE C 08Apr2002
   POMASS =   12.011; ZVAL   =    4.000    mass and valenz
   ENMAX  =  400.000; ENMIN  =  300.000 eV
   QCUT   =   -5.516; QGAM   =   11.032    optimization parameters

[...]

 POTCAR:   PAW_PBE H 15Jun2001
   VRHFIN =H: ultrasoft test

   TITEL  = PAW_PBE H 15Jun2001
   POMASS =    1.000; ZVAL   =    1.000    mass and valenz
   ENMAX  =  250.000; ENMIN  =  200.000 eV
   QCUT   =   -5.749; QGAM   =   11.498    optimization parameters

   Description
     l     E      TYP  RCUT    TYP  RCUT
     0   .000     23  1.100
     0   .500     23  1.100
     1  -.300     23  1.100

 Optimization of the real space projectors (new method)

 maximal supplied QI-value         = 15.12
 optimisation between [QCUT,QGAM] = [ 10.13, 20.26] = [ 28.73,114.92] Ry
 Optimized for a Real-space Cutoff    1.66 Angstroem

   l    n(q)    QCUT    max X(q) W(low)/X(q) W(high)/X(q)  e(spline)
   2      9    10.129     3.643    0.26E-04    0.47E-05    0.66E-07
   2      9    10.129    46.462    0.19E-03    0.14E-03    0.36E-06
   0     10    10.129    13.796    0.20E-04    0.13E-05    0.52E-08
   0     10    10.129    57.669    0.74E-04    0.43E-04    0.14E-06
   1     10    10.129     7.440    0.56E-05    0.78E-05    0.31E-07
   1     10    10.129    10.255    0.35E-04    0.26E-05    0.11E-06
 Optimization of the real space projectors (new method)

[...]

   l    n(q)    QCUT    max X(q) W(low)/X(q) W(high)/X(q)  e(spline)
   0      8    10.053     5.582    0.33E-04    0.11E-04    0.76E-07
   0      8    10.053    69.432    0.23E-03    0.30E-03    0.26E-06
   1      8    10.053     2.780    0.71E-04    0.11E-03    0.15E-06
   1      8    10.053     4.549    0.18E-03    0.18E-03    0.28E-06
 Optimization of the real space projectors (new method)

 maximal supplied QI-value         = 34.20
 optimisation between [QCUT,QGAM] = [  9.92, 20.18] = [ 27.55,114.04] Ry
 Optimized for a Real-space Cutoff    1.35 Angstroem

   l    n(q)    QCUT    max X(q) W(low)/X(q) W(high)/X(q)  e(spline)
   0      8     9.919     4.436    0.29E-04    0.54E-04    0.68E-07
   0      8     9.919    16.131    0.15E-03    0.18E-03    0.35E-06
   1      8     9.919     4.654    0.20E-03    0.45E-03    0.40E-06

 PAW_PBE Pt 05Jan2001                   :
 PAW_PBE C 08Apr2002                    :
 PAW_PBE H 15Jun2001                    :
 PAW_PBE C 08Apr2002                    :
 PAW_PBE H 15Jun2001                    :

 POSCAR: Pt  C  H
  positions in direct lattice
  velocities in cartesian coordinates
 exchange correlation table for  LEXCH =       41
   RHO(1)=    0.500       N(1)  =     2000
   RHO(2)=  100.500       N(2)  =     4000

 VTST: version 3.2, (02/03/18)

 CHAIN: initializing optimizer

 OPT: Using VASP Conjugate-Gradient optimizer
 CHAIN: Read ICHAIN             0

 POSCAR: Pt  C  H
  positions in direct lattice
  velocities in cartesian coordinates

 ion  position               nearest neighbor table
   1  0.000  0.000  0.372-   3 2.82  10 2.82  12 2.82  16 2.82   2 2.82   6 2.82   7 2.82   4 2.82
                             8 2.82
   2  0.333  0.000  0.372-   9 2.82  11 2.82   8 2.82   5 2.82  17 2.82   3 2.82   1 2.82   4 2.82
                            10 2.82
   3  0.667  0.000  0.372-   1 2.82   7 2.82  12 2.82   6 2.82  18 2.82   2 2.82  11 2.82   9 2.82
                             5 2.82
   4  0.000  0.333  0.372-   7 2.82   5 2.82   9 2.82  13 2.82   6 2.82  15 2.82  10 2.82   2 2.82
                             1 2.82
   5  0.333  0.333  0.372-   7 2.82   4 2.82  13 2.82  14 2.82   8 2.82   2 2.82   6 2.82  11 2.82
                             3 2.82
   6  0.667  0.333  0.372-   9 2.82   8 2.82  15 2.82   3 2.82   4 2.82  14 2.82   5 2.82   1 2.82
                            12 2.82
   7  0.000  0.667  0.372-   4 2.82   5 2.82   3 2.82  18 2.82  16 2.82   9 2.82   1 2.82  13 2.82
                             8 2.82
   8  0.333  0.667  0.372-   9 2.82   6 2.82   5 2.82  17 2.82   2 2.82  14 2.82   1 2.82  16 2.82
                             7 2.82
   9  0.667  0.667  0.372-   8 2.82   6 2.82   4 2.82   2 2.82  17 2.82   7 2.82  15 2.82  18 2.82
                             3 2.82
  10  0.111  0.111  0.457-  25 2.77  19 2.80  15 2.82  12 2.82  13 2.82   1 2.82  16 2.82  11 2.82
                             4 2.82  17 2.82   2 2.82  21 2.89
  11  0.444  0.111  0.457-  26 2.78  13 2.82  14 2.82   2 2.82  17 2.82  12 2.82  10 2.82   5 2.82
                            18 2.82   3 2.82  19 2.82  20 2.87
  12  0.778  0.111  0.457-  27 2.78  15 2.82  10 2.82  14 2.82   3 2.82  16 2.82  18 2.82   1 2.82
                            11 2.82   6 2.82  21 2.85  20 2.86
  13  0.111  0.444  0.457-  19 2.77  22 2.81  11 2.82  14 2.82   5 2.82  10 2.82   4 2.82  16 2.82
                            18 2.82   7 2.82  15 2.82  24 2.83
  14  0.444  0.444  0.457-  20 2.81  13 2.82  11 2.82  12 2.82   5 2.82  16 2.82   6 2.82  15 2.82
                             8 2.82  17 2.82  22 2.82  23 2.84
  15  0.778  0.444  0.457-  24 2.81  21 2.82  12 2.82  10 2.82   6 2.82  17 2.82   4 2.82  14 2.82
                             9 2.82  13 2.82  18 2.82  23 2.86
  16  0.111  0.778  0.457-  22 2.77  25 2.81  18 2.82  13 2.82  12 2.82  14 2.82  10 2.82   7 2.82
                             1 2.82  17 2.82   8 2.82  27 2.83
  17  0.444  0.778  0.457-  26 2.81   8 2.82   9 2.82  15 2.82  11 2.82   2 2.82  16 2.82  18 2.82
                            10 2.82  14 2.82  25 2.82  23 2.83
  18  0.778  0.778  0.457-  24 2.78  27 2.82  16 2.82   7 2.82  12 2.82  13 2.82   3 2.82  17 2.82
                            11 2.82   9 2.82  15 2.82  26 2.83
  19  0.217  0.228  0.542-  13 2.77  10 2.80  25 2.81  26 2.81  11 2.82  24 2.82  22 2.82  35 2.82
                            21 2.84  20 2.84  29 2.84  28 2.87
  20  0.552  0.230  0.544-  21 2.78  23 2.78  36 2.78  14 2.81  22 2.82  27 2.82  29 2.82  26 2.84
                            19 2.84  12 2.86  11 2.87  30 3.06
  21  0.881  0.230  0.544-  23 2.78  20 2.78  34 2.78  28 2.81  27 2.82  24 2.82  15 2.82  25 2.83
                            19 2.84  12 2.85  10 2.89  30 3.07
  22  0.217  0.562  0.542-  16 2.77  13 2.81  29 2.81  20 2.82  24 2.82  23 2.82  19 2.82  27 2.82
                            14 2.82  25 2.82  31 2.84  33 2.87
  23  0.552  0.559  0.544-  21 2.78  20 2.78  31 2.82  24 2.82  32 2.82  22 2.82  17 2.83  26 2.84
                            14 2.84  25 2.84  15 2.86  30 3.01
  24  0.884  0.562  0.542-  18 2.78  15 2.81  28 2.81  21 2.82  23 2.82  22 2.82  26 2.82  19 2.82
                            27 2.82  13 2.83  33 2.85  32 2.86
  25  0.216  0.896  0.542-  10 2.77  31 2.78  16 2.81  19 2.81  27 2.81  26 2.82  17 2.82  22 2.82
                            21 2.83  23 2.84  35 2.86  34 2.89
  26  0.550  0.896  0.542-  11 2.78  32 2.81  17 2.81  19 2.81  27 2.82  24 2.82  25 2.82  18 2.83
                            20 2.84  23 2.84  36 2.85  35 2.88
  27  0.884  0.896  0.542-  12 2.78  33 2.81  25 2.81  21 2.82  18 2.82  20 2.82  26 2.82  22 2.82
                            24 2.82  16 2.83  34 2.86  36 2.86
  28  0.990  0.346  0.629-  29 2.80  35 2.81  21 2.81  34 2.81  24 2.81  33 2.82  32 2.83  30 2.84
                            19 2.87
  29  0.322  0.346  0.628-  35 2.80  28 2.80  22 2.81  36 2.82  20 2.82  33 2.82  19 2.84  30 2.84
                            31 2.85
  30  0.655  0.350  0.640-  40 2.18  32 2.83  31 2.84  28 2.84  34 2.84  29 2.84  36 2.85  23 3.01
                            20 3.06  21 3.07
  31  0.321  0.683  0.628-  25 2.78  35 2.80  34 2.81  23 2.82  33 2.82  32 2.82  22 2.84  30 2.84
                            29 2.85
  32  0.656  0.681  0.629-  26 2.81  36 2.81  33 2.81  23 2.82  35 2.82  31 2.82  30 2.83  28 2.83
                            24 2.86
  33  0.989  0.681  0.629-  27 2.81  32 2.81  36 2.82  31 2.82  28 2.82  34 2.82  29 2.82  24 2.85
                            22 2.87
  34  0.989  0.015  0.629-  21 2.78  31 2.81  28 2.81  36 2.82  35 2.82  33 2.82  30 2.84  27 2.86
                            25 2.89
  35  0.323  0.014  0.629-  31 2.80  29 2.80  28 2.81  36 2.82  32 2.82  34 2.82  19 2.82  25 2.86
                            26 2.88
  36  0.656  0.014  0.629-  20 2.78  32 2.81  33 2.82  29 2.82  34 2.82  35 2.82  30 2.85  26 2.85
                            27 2.86
  37  0.445  0.312  0.808-  52 1.10  51 1.11  38 1.53  42 1.53
  38  0.387  0.505  0.790-  44 1.10  43 1.10  37 1.53  39 1.55
  39  0.430  0.501  0.734-  45 1.11  50 1.11  40 1.54  38 1.55
  40  0.631  0.371  0.721-  53 1.53  39 1.54  41 1.54  30 2.18
  41  0.694  0.178  0.741-  47 1.10  46 1.11  40 1.54  42 1.55
  42  0.649  0.181  0.797-  49 1.10  48 1.10  37 1.53  41 1.55
  43  0.457  0.563  0.811-  38 1.10
  44  0.239  0.597  0.795-  38 1.10
  45  0.387  0.641  0.720-  39 1.11
  46  0.625  0.117  0.721-  41 1.11
  47  0.842  0.089  0.735-  41 1.10
  48  0.732  0.221  0.820-  42 1.10
  49  0.688  0.041  0.809-  42 1.10
  50  0.344  0.455  0.714-  39 1.11
  51  0.363  0.262  0.788-  37 1.11
  52  0.417  0.313  0.848-  37 1.10
  53  0.753  0.445  0.739-  55 1.10  56 1.11  54 1.11  40 1.53
  54  0.751  0.453  0.780-  53 1.11
  55  0.705  0.585  0.725-  53 1.10
  56  0.896  0.357  0.727-  53 1.11

IMPORTANT INFORMATION: All symmetrisations will be switched off!
NOSYMM: (Re-)initialisation of all symmetry stuff for point group C_1.

 KPOINTS: Automatic mesh

Automatic generation of k-mesh.
Space group operators:
 irot       det(A)        alpha          n_x          n_y          n_z        tau_x        tau_y        tau_z
    1     1.000000     0.000000     1.000000     0.000000     0.000000     0.000000     0.000000     0.000000

 Subroutine IBZKPT returns following result:

 Found     34 irreducible k-points:

 Following reciprocal coordinates:
            Coordinates               Weight
[...]
      56 -38.3044

 E-fermi :  -0.5966     XC(G=0):  -6.2292     alpha+bet : -4.9578

[...]

 k-point    34 :       0.5000    0.5000    0.0000
  band No.  band energies     occupation
      1     -16.8059      2.00000
      2     -14.8318      2.00000
      3     -14.3395      2.00000
      4     -12.8123      2.00000
      5     -11.0605      2.00000
      6     -10.4808      2.00000
      7      -8.9959      2.00000
      8      -8.7369      2.00000
      9      -8.7099      2.00000
     10      -7.8393      2.00000
     11      -7.5084      2.00000
     12      -7.4280      2.00000
     13      -7.2971      2.00000
     14      -7.2886      2.00000
     15      -7.1467      2.00000
     16      -6.9101      2.00000
     17      -6.8797      2.00000
     18      -6.7421      2.00000
     19      -6.6579      2.00000
     20      -6.4601      2.00000
     21      -6.4191      2.00000
     22      -6.4021      2.00000
     23      -6.3756      2.00000
     24      -6.3642      2.00000
     25      -6.3478      2.00000
     26      -6.3464      2.00000
     27      -6.3290      2.00000
     28      -6.3112      2.00000
     29      -6.2592      2.00000
     30      -6.2552      2.00000
     31      -6.2021      2.00000
     32      -6.1700      2.00000
     33      -6.1541      2.00000
     34      -6.1323      2.00000
     35      -6.0743      2.00000
     36      -5.9948      2.00000
     37      -5.9698      2.00000
     38      -5.9079      2.00000
     39      -5.8225      2.00000
     40      -5.8170      2.00000
     41      -5.7945      2.00000
     42      -5.7817      2.00000
     43      -5.5527      2.00000
     44      -5.5464      2.00000
     45      -5.5318      2.00000
     46      -5.5275      2.00000
     47      -5.4978      2.00000
     48      -5.4769      2.00000
     49      -5.3996      2.00000
     50      -5.3918      2.00000
     51      -5.3079      2.00000
     52      -5.2724      2.00000
     53      -5.2489      2.00000
     54      -5.2323      2.00000
     55      -5.2142      2.00000
     56      -5.1711      2.00000
     57      -5.1098      2.00000
     58      -5.1021      2.00000
     59      -5.0216      2.00000
     60      -4.9704      2.00000
[...]
    226       2.1868      0.00000
    227       2.2062      0.00000
    228       2.3038      0.00000
    229       2.4455      0.00000
    230       2.5017      0.00000
    231       2.7095      0.00000
    232       2.8061      0.00000
    233       2.8427      0.00000
    234       2.8854      0.00000
    235       3.0753      0.00000
    236       3.1438      0.00000
    237       3.4411      0.00000
    238       4.1143      0.00000
    239       4.2758      0.00000
    240       4.4736      0.00000

 soft charge-density along one line, spin component            1
         0         1         2         3         4         5         6         7         8         9
 total charge-density along one line

------------------------ aborting loop because EDIFF is reached ----------------------------------------

 VOLUME and BASIS-vectors are now :
  energy-cutoff  :      396.00
  volume of cell :     1665.84
      direct lattice vectors                 reciprocal lattice vectors
     8.455582619  0.000000000  0.000000000     0.118265062 -0.068280376  0.000000000
     4.227791797  7.322749070  0.000000000     0.000000000  0.136560736  0.000000000
     0.000000000  0.000000000 26.903955460     0.000000000  0.000000000  0.037169256

  length of vectors
     8.455582619  8.455582619 26.903955460     0.136560736  0.136560736  0.037169256

 FORCES acting on ions
    electron-ion (+dipol)            ewald-force                    non-local-force                 convergence-correction
   0.254E+00 -.612E+00 0.271E+04   -.219E+00 0.600E+00 -.271E+04   -.324E-02 -.432E-02 0.163E+00   0.307E-03 -.442E-03 -.179E-02
   -.784E-02 -.152E-02 0.271E+04   0.247E-01 -.418E-01 -.271E+04   -.102E-01 0.250E-01 0.162E+00   -.530E-03 0.272E-03 -.186E-02
   -.201E+00 -.491E+00 0.271E+04   0.192E+00 0.475E+00 -.271E+04   -.429E-02 -.600E-02 0.157E+00   0.228E-03 0.518E-03 -.188E-02
   0.653E+00 0.968E-01 0.271E+04   -.649E+00 -.158E+00 -.271E+04   0.889E-02 0.125E-01 0.169E+00   0.527E-03 -.351E-03 -.188E-02
   -.533E+00 0.177E+00 0.271E+04   0.549E+00 -.231E+00 -.271E+04   -.168E-01 0.903E-02 0.157E+00   0.354E-04 0.599E-03 -.180E-02
   -.895E-01 0.648E-01 0.271E+04   0.983E-01 -.997E-01 -.271E+04   -.229E-03 0.989E-02 0.141E+00   -.559E-03 0.241E-04 -.179E-02
   0.123E+00 -.164E+00 0.271E+04   -.110E+00 0.127E+00 -.271E+04   -.559E-02 0.125E-01 0.166E+00   0.110E-02 -.325E-03 -.180E-02
   -.407E+00 0.290E+00 0.271E+04   0.441E+00 -.309E+00 -.271E+04   -.116E-01 0.125E-01 0.153E+00   -.741E-03 -.155E-03 -.178E-02
   0.321E+00 0.320E+00 0.271E+04   -.333E+00 -.347E+00 -.271E+04   0.101E-01 0.187E-01 0.161E+00   -.365E-03 -.148E-03 -.193E-02
   0.533E+01 -.352E+01 0.109E+04   -.531E+01 0.347E+01 -.109E+04   -.583E-01 0.106E+00 -.437E-01   -.172E-03 -.130E-03 -.604E-02
   -.449E+01 -.238E+01 0.109E+04   0.447E+01 0.232E+01 -.109E+04   0.266E-01 0.100E+00 -.228E-01   -.631E-04 0.442E-03 -.612E-02
   -.298E+00 -.468E+01 0.109E+04   0.302E+00 0.475E+01 -.109E+04   -.120E-01 0.607E-01 0.559E-01   0.239E-03 0.455E-04 -.572E-02
   0.105E+01 0.211E+00 0.110E+04   -.105E+01 -.235E+00 -.110E+04   -.232E-01 0.863E-01 -.623E-01   0.401E-03 0.376E-04 -.634E-02
   -.393E+01 0.193E+01 0.109E+04   0.402E+01 -.200E+01 -.109E+04   -.391E-01 0.792E-01 0.436E-01   -.274E-03 0.164E-03 -.642E-02
   0.341E+01 0.219E+01 0.109E+04   -.350E+01 -.225E+01 -.109E+04   0.618E-02 0.605E-01 0.477E-01   -.142E-03 -.358E-03 -.543E-02
   -.418E-01 -.211E+01 0.110E+04   0.525E-01 0.211E+01 -.110E+04   -.374E-01 0.566E-01 -.510E-01   0.177E-03 -.134E-03 -.644E-02
   -.326E+00 0.378E+01 0.109E+04   0.354E+00 -.374E+01 -.109E+04   -.290E-01 -.690E-03 0.810E-02   -.639E-03 -.580E-04 -.586E-02
   0.974E+00 -.165E+01 0.110E+04   -.996E+00 0.165E+01 -.110E+04   0.140E-01 0.507E-01 -.487E-01   0.473E-03 -.151E-04 -.548E-02
   0.235E+01 0.269E+01 -.525E+03   -.236E+01 -.275E+01 0.524E+03   0.788E-02 0.544E-01 0.196E+00   -.533E-03 -.114E-03 -.443E-02
   -.306E+01 0.218E+01 -.549E+03   0.338E+01 -.201E+01 0.550E+03   -.300E+00 -.171E+00 -.136E+00   0.671E-03 -.322E-03 -.435E-02
   0.305E+00 0.110E+01 -.558E+03   -.647E+00 -.906E+00 0.558E+03   0.329E+00 -.190E+00 -.137E+00   -.109E-03 0.110E-03 -.357E-02
   0.360E+01 -.207E+01 -.520E+03   -.354E+01 0.203E+01 0.520E+03   -.507E-01 0.332E-01 0.805E-01   -.180E-03 0.305E-03 -.494E-02
   -.272E+01 0.190E+01 -.547E+03   0.273E+01 -.224E+01 0.547E+03   -.783E-02 0.322E+00 -.908E-01   0.633E-03 -.294E-03 -.407E-02
   -.101E+01 -.753E+00 -.528E+03   0.943E+00 0.714E+00 0.528E+03   0.600E-01 0.280E-01 0.119E+00   -.408E-03 -.680E-04 -.391E-02
   -.877E+00 -.440E+01 -.526E+03   0.885E+00 0.446E+01 0.526E+03   -.144E-01 -.493E-01 0.163E+00   -.167E-03 0.307E-03 -.452E-02
   0.113E+01 -.101E+01 -.529E+03   -.116E+01 0.104E+01 0.529E+03   0.296E-01 -.326E-01 0.170E+00   0.175E-03 -.257E-03 -.411E-02
   -.240E+00 0.399E+00 -.531E+03   0.246E+00 -.317E+00 0.531E+03   -.462E-02 -.750E-01 0.124E+00   -.204E-04 0.323E-03 -.428E-02
   -.521E+02 0.756E+01 -.214E+04   0.522E+02 -.762E+01 0.214E+04   -.135E+00 0.493E-01 0.389E-01   -.124E-03 -.296E-03 -.111E-02
   0.686E+02 0.875E+01 -.210E+04   -.689E+02 -.893E+01 0.210E+04   0.287E+00 0.166E+00 0.180E+00   -.707E-03 -.124E-03 0.779E-03
   -.263E+02 0.190E+02 -.206E+04   0.264E+02 -.189E+02 0.206E+04   -.463E-02 -.164E+00 -.281E+01   0.503E-03 0.245E-03 -.360E-03
   0.271E+02 -.641E+02 -.209E+04   -.271E+02 0.646E+02 0.209E+04   0.239E-01 -.479E+00 0.584E+00   0.191E-03 0.623E-03 0.367E-03
   -.346E+02 -.520E+02 -.212E+04   0.346E+02 0.523E+02 0.212E+04   -.257E-01 -.251E+00 0.909E-01   0.279E-03 0.533E-04 0.356E-04
   0.678E+01 -.406E+01 -.218E+04   -.684E+01 0.417E+01 0.218E+04   0.642E-01 -.114E+00 -.316E+00   -.495E-03 0.113E-03 0.465E-03
   -.330E+02 0.434E+02 -.215E+04   0.331E+02 -.433E+02 0.215E+04   -.174E-01 -.899E-01 -.173E+00   0.188E-03 0.401E-03 -.160E-03
   0.656E+01 -.441E+00 -.220E+04   -.657E+01 0.534E+00 0.220E+04   0.145E-01 -.103E+00 -.327E+00   -.475E-03 0.112E-04 0.759E-03
   0.257E+02 0.584E+02 -.212E+04   -.258E+02 -.585E+02 0.212E+04   0.112E+00 0.808E-01 0.193E+00   0.351E-03 -.487E-03 0.101E-04
   0.117E+03 0.333E+02 -.972E+03   -.117E+03 -.333E+02 0.972E+03   0.271E-01 0.331E-01 -.126E+00   0.253E-03 0.101E-02 -.446E-03
   0.546E+02 -.127E+03 -.100E+04   -.548E+02 0.126E+03 0.100E+04   0.261E+00 0.196E+00 -.514E+00   -.841E-04 0.496E-03 -.485E-03
   0.709E+02 -.111E+03 -.984E+03   -.711E+02 0.111E+03 0.984E+03   0.198E+00 -.228E+00 0.126E+00   0.672E-03 0.147E-02 0.140E-02
   -.395E+02 -.440E+01 -.981E+03   0.393E+02 0.422E+01 0.981E+03   0.212E+00 0.190E+00 -.358E+00   0.939E-04 0.154E-02 0.118E-02
   -.219E+02 0.143E+03 -.989E+03   0.220E+02 -.143E+03 0.989E+03   -.951E-01 0.554E+00 0.134E+00   0.284E-03 0.457E-03 0.102E-02
   -.290E+02 0.118E+03 -.998E+03   0.286E+02 -.118E+03 0.999E+03   0.354E+00 -.670E-01 -.285E+00   -.105E-03 0.149E-02 0.880E-03
   -.372E+02 -.454E+02 -.263E+03   0.413E+02 0.476E+02 0.266E+03   -.414E+01 -.220E+01 -.291E+01   -.726E-04 0.697E-04 -.208E-03
   0.525E+02 -.497E+02 -.244E+03   -.568E+02 0.531E+02 0.245E+03   0.431E+01 -.341E+01 -.737E+00   0.260E-03 -.893E-04 -.509E-04
   -.242E+01 -.699E+02 -.249E+03   0.353E+01 0.750E+02 0.247E+03   -.111E+01 -.507E+01 0.170E+01   0.694E-04 -.276E-03 0.450E-03
   0.448E+02 0.456E+02 -.236E+03   -.490E+02 -.479E+02 0.234E+03   0.416E+01 0.227E+01 0.270E+01   -.183E-03 -.117E-03 0.233E-04
   -.494E+02 0.545E+02 -.252E+03   0.538E+02 -.579E+02 0.251E+03   -.438E+01 0.335E+01 0.881E+00   0.210E-03 0.638E-04 0.217E-03
   -.541E+02 0.321E+01 -.261E+03   0.585E+02 -.181E+01 0.264E+03   -.437E+01 -.140E+01 -.305E+01   0.200E-03 0.325E-03 0.140E-03
   0.115E+02 0.690E+02 -.245E+03   -.128E+02 -.742E+02 0.246E+03   0.128E+01 0.518E+01 -.155E+01   -.152E-03 -.451E-04 0.209E-03
   0.618E+02 0.161E+01 -.237E+03   -.663E+02 -.318E+01 0.234E+03   0.453E+01 0.156E+01 0.257E+01   0.229E-03 0.261E-03 0.312E-03
   0.692E+02 0.265E+02 -.217E+03   -.737E+02 -.283E+02 0.215E+03   0.450E+01 0.180E+01 0.254E+01   0.930E-04 0.226E-03 0.128E-03
   0.259E+02 0.305E+01 -.257E+03   -.271E+02 -.302E+01 0.262E+03   0.122E+01 -.394E-01 -.541E+01   0.245E-04 0.166E-03 -.427E-04
   -.145E+03 -.543E+02 -.106E+04   0.145E+03 0.544E+02 0.106E+04   -.372E+00 -.789E-01 0.696E+00   0.651E-03 0.652E-03 0.733E-03
   -.315E+02 -.142E+02 -.295E+03   0.317E+02 0.144E+02 0.301E+03   -.146E+00 -.281E+00 -.540E+01   0.419E-04 0.420E-04 0.209E-03
   -.286E+02 -.585E+02 -.255E+03   0.296E+02 0.637E+02 0.253E+03   -.999E+00 -.512E+01 0.186E+01   0.526E-04 -.172E-03 0.280E-03
   -.605E+02 0.261E+02 -.256E+03   0.648E+02 -.293E+02 0.255E+03   -.427E+01 0.322E+01 0.158E+01   -.275E-03 0.351E-03 0.292E-03
   -.137E+01 -.158E+00 0.634E+01   0.227E-12 -.284E-13 0.509E-11   0.136E+01 0.150E+00 -.624E+01   0.204E-02 0.844E-02 -.102E+00

 POSITION                                       TOTAL-FORCE (eV/Angst)
      0.00000      0.00000     10.00000         0.031799     -0.016376     -0.183693
      2.81853      0.00000     10.00000         0.006227     -0.018139     -0.291043
      5.63706      0.00000     10.00000        -0.013690     -0.021065     -0.180268
      1.40927      2.44092     10.00000         0.013547     -0.049425     -0.189123
      4.22779      2.44092     10.00000         0.000070     -0.044689     -0.187882
      7.04632      2.44092     10.00000         0.008144     -0.025033     -0.175906
      2.81853      4.88183     10.00000         0.008643     -0.025629     -0.175908
      5.63706      4.88183     10.00000         0.022042     -0.007309     -0.193453
      8.45558      4.88183     10.00000        -0.002529     -0.008543     -0.185836
      1.40926      0.81364     12.30132        -0.031061      0.051827      0.071921
      4.22779      0.81364     12.30132         0.010830      0.044657      0.051138
      7.04632      0.81364     12.30132        -0.007634      0.139387      0.360109
      2.81853      3.25455     12.30132        -0.020030      0.062113      0.063167
      5.63705      3.25455     12.30132         0.056970      0.006257      0.329212
      8.45558      3.25455     12.30132        -0.078194     -0.003013      0.358268
      4.22779      5.69547     12.30132        -0.026390      0.056001      0.066947
      7.04632      5.69547     12.30132        -0.000996      0.033152      0.040883
      9.86485      5.69547     12.30132        -0.007548      0.049887      0.085888
      2.80116      1.66981     14.57699        -0.006101     -0.001942      0.016173
      5.64028      1.68766     14.63598         0.018260      0.002235      0.004213
      8.42086      1.68775     14.64278        -0.012283     -0.001295     -0.000280
      4.21150      4.11432     14.58058         0.004809     -0.007817      0.025272
      7.03251      4.09581     14.63195         0.003117     -0.023770      0.005584
      9.84933      4.11458     14.58623        -0.006198     -0.010831      0.027308
      5.61894      6.56351     14.57913        -0.005915      0.005180      0.009294
      8.44126      6.55877     14.58475         0.007185     -0.003941      0.010561
     11.26009      6.56101     14.59070         0.001801      0.008032      0.028532
      9.83834      2.53490     16.91485        -0.017420     -0.011481      0.006629
      4.18749      2.53298     16.90096         0.018290     -0.014038      0.005272
      7.01274      2.56057     17.22476         0.002896     -0.005710      0.008946
      5.60665      5.00459     16.88300         0.012965     -0.013282      0.008120
      8.42938      4.98923     16.91048        -0.011913     -0.011691      0.004255
     11.24058      4.98487     16.91126         0.001806     -0.002697      0.004335
      8.42223      0.10855     16.93497        -0.001052      0.007808      0.008943
      2.78754      0.10423     16.92588         0.003169     -0.009335      0.014139
      5.60556      0.10057     16.92073        -0.002049      0.006861      0.006551
      5.08371      2.28044     21.73458        -0.002245     -0.010548      0.010422
      5.40606      3.69693     21.24393         0.002891     -0.016173      0.008948
      5.74986      3.66607     19.73451        -0.010909     -0.008913      0.025277
      6.90630      2.71436     19.39833         0.011865      0.018847     -0.004194
      6.62641      1.30623     19.94387         0.008913      0.000519      0.013305
      6.25119      1.32499     21.45177        -0.005778     -0.000858      0.011110
      6.24442      4.12406     21.82112         0.005205     -0.010900      0.006662
      4.54379      4.37060     21.38647         0.006431     -0.010379      0.011064
      5.97969      4.69065     19.38186        -0.006255     -0.000843      0.001187
      5.77629      0.85595     19.39565        -0.020983     -0.001288     -0.002930
      7.49968      0.65293     19.77906        -0.001765     -0.013983     -0.010013
      7.12765      1.62099     22.05409         0.008437     -0.005110     -0.003269
      5.99172      0.29689     21.75428         0.009011     -0.010673      0.000383
      4.83259      3.33257     19.21028        -0.004281     -0.011125      0.008340
      4.17855      1.91761     21.21058         0.007424     -0.007776      0.013428
      4.84932      2.29047     22.81206         0.003687     -0.012707     -0.002347
      8.25139      3.26141     19.88096        -0.019918     -0.010580      0.010956
      8.26248      3.31155     20.98621         0.006417     -0.011239      0.016100
      8.43657      4.28174     19.50534        -0.002694      0.008907     -0.000076
      9.08897      2.61846     19.56789         0.022983     -0.021525      0.027379
    total drift:                               -0.005195      0.000407     -0.000100

  FREE ENERGIE OF THE ION-ELECTRON SYSTEM (eV)
  free  energy   TOTEN  =      -257.26864078 eV

  energy  without entropy=     -257.22899862  energy(sigma->0) =     -257.25873024

 d Force = 0.3144374E-03[ 0.183E-03, 0.446E-03]  d Energy = 0.3121087E-03 0.233E-05
 d Force = 0.2213586E+01[ 0.221E+01, 0.221E+01]  d Ewald  = 0.2213585E+01 0.219E-06

 stress matrix after NEB project (eV)
      0.00000      0.00000      0.00000
      0.00000      0.00000      0.00000
      0.00000      0.00000      0.00000
  FORCES: max atom, RMS     0.041727    0.011547
  FORCE total and by dimension    0.086412    0.027379
  Stress total and by dimension    0.000000    0.000000

 reached required accuracy - stopping structural energy minimisation