 vasp.5.4.4.18Apr17-6-g9f103f2a35 (build Jul 24 2019 14:41:59) complex

 executed on IFC18.0.1.163_CrayMP date 2021.01.10  13:00:45

 INCAR:
 POTCAR:   PAW_PBE Pt 05Jan2001
 POTCAR:   PAW_PBE C 08Apr2002
 POTCAR:   PAW_PBE H 15Jun2001
 POTCAR:   PAW_PBE C 08Apr2002
 POTCAR:   PAW_PBE H 15Jun2001

 POTCAR:   PAW_PBE Pt 05Jan2001
   VRHFIN =Pt: s1d9

   TITEL  = PAW_PBE Pt 05Jan2001
   POMASS =  195.080; ZVAL   =   10.000    mass and valenz
   ENMAX  =  230.283; ENMIN  =  172.712 eV
   QCUT   =   -4.114; QGAM   =    8.228    optimization parameters

   Description
     l     E      TYP  RCUT    TYP  RCUT
     2   .000     23  2.500
     2   .000     23  2.500
     0   .000     23  2.500
     0   .000     23  2.500
     1  -.200     23  2.500
     1  1.500     23  2.500
     3   .000      7   .000

 POTCAR:   PAW_PBE C 08Apr2002
   VRHFIN =C: s2p2

   TITEL  = PAW_PBE C 08Apr2002
   POMASS =   12.011; ZVAL   =    4.000    mass and valenz
   ENMAX  =  400.000; ENMIN  =  300.000 eV
   QCUT   =   -5.516; QGAM   =   11.032    optimization parameters

[...]

 POTCAR:   PAW_PBE H 15Jun2001
   VRHFIN =H: ultrasoft test

   TITEL  = PAW_PBE H 15Jun2001
   POMASS =    1.000; ZVAL   =    1.000    mass and valenz
   ENMAX  =  250.000; ENMIN  =  200.000 eV
   QCUT   =   -5.749; QGAM   =   11.498    optimization parameters

[...]

 POTCAR:   PAW_PBE C 08Apr2002
   VRHFIN =C: s2p2

   TITEL  = PAW_PBE C 08Apr2002
   POMASS =   12.011; ZVAL   =    4.000    mass and valenz
   ENMAX  =  400.000; ENMIN  =  300.000 eV
   QCUT   =   -5.516; QGAM   =   11.032    optimization parameters

[...]

 POTCAR:   PAW_PBE H 15Jun2001
   VRHFIN =H: ultrasoft test

   TITEL  = PAW_PBE H 15Jun2001
   POMASS =    1.000; ZVAL   =    1.000    mass and valenz
   ENMAX  =  250.000; ENMIN  =  200.000 eV
   QCUT   =   -5.749; QGAM   =   11.498    optimization parameters

   Description
     l     E      TYP  RCUT    TYP  RCUT
     0   .000     23  1.100
     0   .500     23  1.100
     1  -.300     23  1.100

 Optimization of the real space projectors (new method)

 maximal supplied QI-value         = 15.12
 optimisation between [QCUT,QGAM] = [ 10.13, 20.26] = [ 28.73,114.92] Ry
 Optimized for a Real-space Cutoff    1.66 Angstroem

   l    n(q)    QCUT    max X(q) W(low)/X(q) W(high)/X(q)  e(spline)
   2      9    10.129     3.643    0.26E-04    0.47E-05    0.66E-07
   2      9    10.129    46.462    0.19E-03    0.14E-03    0.36E-06
   0     10    10.129    13.796    0.20E-04    0.13E-05    0.52E-08
   0     10    10.129    57.669    0.74E-04    0.43E-04    0.14E-06
   1     10    10.129     7.440    0.56E-05    0.78E-05    0.31E-07
   1     10    10.129    10.255    0.35E-04    0.26E-05    0.11E-06
 Optimization of the real space projectors (new method)

[...]

   l    n(q)    QCUT    max X(q) W(low)/X(q) W(high)/X(q)  e(spline)
   0      8    10.053     5.582    0.33E-04    0.11E-04    0.76E-07
   0      8    10.053    69.432    0.23E-03    0.30E-03    0.26E-06
   1      8    10.053     2.780    0.71E-04    0.11E-03    0.15E-06
   1      8    10.053     4.549    0.18E-03    0.18E-03    0.28E-06
 Optimization of the real space projectors (new method)

 maximal supplied QI-value         = 34.20
 optimisation between [QCUT,QGAM] = [  9.92, 20.18] = [ 27.55,114.04] Ry
 Optimized for a Real-space Cutoff    1.35 Angstroem

   l    n(q)    QCUT    max X(q) W(low)/X(q) W(high)/X(q)  e(spline)
   0      8     9.919     4.436    0.29E-04    0.54E-04    0.68E-07
   0      8     9.919    16.131    0.15E-03    0.18E-03    0.35E-06
   1      8     9.919     4.654    0.20E-03    0.45E-03    0.40E-06

 PAW_PBE Pt 05Jan2001                   :
 PAW_PBE C 08Apr2002                    :
 PAW_PBE H 15Jun2001                    :
 PAW_PBE C 08Apr2002                    :
 PAW_PBE H 15Jun2001                    :

 POSCAR: Pt
  positions in direct lattice
  velocities in cartesian coordinates
 exchange correlation table for  LEXCH =       41
   RHO(1)=    0.500       N(1)  =     2000
   RHO(2)=  100.500       N(2)  =     4000

 ion  position               nearest neighbor table
   1  0.000  0.000  0.372-   2 2.82   4 2.82   3 2.82   6 2.82   8 2.82   7 2.82  10 2.82  12 2.82
                            16 2.82
   2  0.333  0.000  0.372-   4 2.82   1 2.82   5 2.82  10 2.82   8 2.82   9 2.82   3 2.82  11 2.82
                            17 2.82
   3  0.667  0.000  0.372-   6 2.82   5 2.82   1 2.82   7 2.82  12 2.82   9 2.82  11 2.82   2 2.82
                            18 2.82
   4  0.000  0.333  0.372-   2 2.82   9 2.82   1 2.82   7 2.82   5 2.82  10 2.82   6 2.82  13 2.82
                            15 2.82
   5  0.333  0.333  0.372-   6 2.82   8 2.82   7 2.82   3 2.82   2 2.82   4 2.82  11 2.82  14 2.82
                            13 2.82
   6  0.667  0.333  0.372-   3 2.82   5 2.82   8 2.82   1 2.82  15 2.82   9 2.82  12 2.82  14 2.82
                             4 2.82
   7  0.000  0.667  0.372-   5 2.82   8 2.82   9 2.82   4 2.82   3 2.82  16 2.82  13 2.82   1 2.82
                            18 2.82
   8  0.333  0.667  0.372-   6 2.82   5 2.82   7 2.82   1 2.82  17 2.82  16 2.82   2 2.82  14 2.82
                             9 2.82
   9  0.667  0.667  0.372-  18 2.82   4 2.82   7 2.82   6 2.82  15 2.82   2 2.82   3 2.82   8 2.82
                            17 2.82
  10  0.111  0.111  0.457-  19 2.77  13 2.82  15 2.82  11 2.82   4 2.82   2 2.82  12 2.82  17 2.82
                             1 2.82  16 2.82  25 2.86  21 2.87
  11  0.444  0.111  0.457-  26 2.81  19 2.81  14 2.82  12 2.82  13 2.82  18 2.82  10 2.82   5 2.82
                             3 2.82   2 2.82  17 2.82  20 2.83
  12  0.778  0.111  0.457-  27 2.82  15 2.82  14 2.82  11 2.82   3 2.82   6 2.82  10 2.82   1 2.82
                            16 2.82  18 2.82  21 2.82  20 2.84
  13  0.111  0.444  0.457-  19 2.80  16 2.82  11 2.82  14 2.82  10 2.82  18 2.82   7 2.82   5 2.82
                             4 2.82  15 2.82  24 2.82  22 2.82
  14  0.444  0.444  0.457-  16 2.82  17 2.82  15 2.82  11 2.82  12 2.82  13 2.82   5 2.82   8 2.82
                             6 2.82  23 2.82  20 2.83  22 2.84
  15  0.778  0.444  0.457-  24 2.79  17 2.82  18 2.82  14 2.82  12 2.82  10 2.82   6 2.82   9 2.82
                             4 2.82  13 2.82  21 2.84  23 2.86
  16  0.111  0.778  0.457-  14 2.82  13 2.82  17 2.82   7 2.82   8 2.82  12 2.82   1 2.82  10 2.82
                            18 2.82  25 2.82  22 2.83  27 2.83
  17  0.444  0.778  0.457-  26 2.79  15 2.82  14 2.82  18 2.82  16 2.82   8 2.82  10 2.82   9 2.82
                             2 2.82  11 2.82  23 2.84  25 2.86
  18  0.778  0.778  0.457-  27 2.81  24 2.81  15 2.82  17 2.82   9 2.82  11 2.82  13 2.82   3 2.82
                             7 2.82  16 2.82  12 2.82  26 2.83
  19  0.218  0.221  0.542-  29 2.76  10 2.77  13 2.80  26 2.81  11 2.81  24 2.82  25 2.83  21 2.83
                            20 2.85  22 2.85  35 2.86  28 2.87
  20  0.553  0.224  0.543-  21 2.78  29 2.80  23 2.80  36 2.80  22 2.82  27 2.82  14 2.83  11 2.83
                            26 2.84  12 2.84  19 2.85  30 2.95
  21  0.883  0.223  0.544-  28 2.78  20 2.78  23 2.81  27 2.81  24 2.82  12 2.82  34 2.82  19 2.83
                            15 2.84  25 2.85  10 2.87  30 2.99
  22  0.220  0.557  0.543-  25 2.78  29 2.79  23 2.80  20 2.82  33 2.82  27 2.82  13 2.82  16 2.83
                            24 2.84  14 2.84  19 2.85  31 2.94
  23  0.551  0.555  0.544-  32 2.77  20 2.80  22 2.80  25 2.80  21 2.81  24 2.82  26 2.82  14 2.82
                            17 2.84  15 2.86  30 2.96  31 2.98
  24  0.885  0.555  0.542-  15 2.79  33 2.80  18 2.81  19 2.82  21 2.82  23 2.82  13 2.82  26 2.82
                            32 2.83  27 2.83  22 2.84  28 2.84
  25  0.219  0.886  0.544-  35 2.78  22 2.78  23 2.80  27 2.81  26 2.82  16 2.82  19 2.83  34 2.83
                            21 2.85  10 2.86  17 2.86  31 2.97
  26  0.551  0.889  0.542-  17 2.79  36 2.80  11 2.81  32 2.81  19 2.81  25 2.82  23 2.82  24 2.82
                            18 2.83  27 2.83  20 2.84  35 2.86
  27  0.886  0.889  0.543-  18 2.81  21 2.81  25 2.81  33 2.81  12 2.82  34 2.82  20 2.82  22 2.82
                            36 2.83  26 2.83  16 2.83  24 2.83
  28  0.991  0.332  0.629-  21 2.78  29 2.80  34 2.81  32 2.82  30 2.82  35 2.82  33 2.83  24 2.84
                            19 2.87
  29  0.323  0.329  0.626-  19 2.76  22 2.79  28 2.80  20 2.80  35 2.80  36 2.81  33 2.82  31 2.84
                            30 2.86
  30  0.657  0.336  0.636-  40 2.15  31 2.77  28 2.82  32 2.82  36 2.84  34 2.85  29 2.86  20 2.95
                            23 2.96  21 2.99
  31  0.327  0.662  0.636-  39 2.14  30 2.77  33 2.82  29 2.84  35 2.84  32 2.84  34 2.85  22 2.94
                            25 2.97  23 2.98
  32  0.659  0.667  0.628-  23 2.77  33 2.81  36 2.81  35 2.81  26 2.81  28 2.82  30 2.82  24 2.83
                            31 2.84
  33  0.992  0.666  0.628-  24 2.80  32 2.81  27 2.81  22 2.82  36 2.82  34 2.82  29 2.82  31 2.82
                            28 2.83
  34  0.992  1.000  0.629-  28 2.81  35 2.81  27 2.82  36 2.82  21 2.82  33 2.82  25 2.83  30 2.85
                            31 2.85
  35  0.325  0.998  0.629-  25 2.78  29 2.80  34 2.81  32 2.81  28 2.82  36 2.83  31 2.84  19 2.86
                            26 2.86
  36  0.659  1.000  0.628-  20 2.80  26 2.80  32 2.81  29 2.81  33 2.82  34 2.82  27 2.83  35 2.83
                            30 2.84
  37  0.317  0.485  0.792-  44 1.10  43 1.10  38 1.55  42 1.56
  38  0.249  0.547  0.738-  45 1.10  46 1.11  39 1.53  37 1.55
  39  0.392  0.577  0.712-  47 1.10  40 1.51  38 1.53  31 2.14
  40  0.581  0.411  0.713-  48 1.10  39 1.51  41 1.53  30 2.15
  41  0.597  0.249  0.742-  50 1.10  49 1.10  40 1.53  42 1.56
  42  0.503  0.303  0.794-  51 1.10  52 1.54  37 1.56  41 1.56
  43  0.212  0.468  0.812-  37 1.10
  44  0.327  0.594  0.811-  37 1.10
  45  0.115  0.673  0.738-  38 1.10
  46  0.231  0.441  0.720-  38 1.11
  47  0.392  0.699  0.726-  39 1.10
  48  0.685  0.447  0.723-  40 1.10
  49  0.532  0.184  0.721-  41 1.10
  50  0.742  0.144  0.746-  41 1.10
  51  0.595  0.321  0.820-  42 1.10
  52  0.479  0.145  0.813-  54 1.10  53 1.10  55 1.10  42 1.54
  53  0.610  0.017  0.816-  52 1.10
  54  0.415  0.176  0.850-  52 1.10
  55  0.390  0.122  0.788-  52 1.10

IMPORTANT INFORMATION: All symmetrisations will be switched off!
NOSYMM: (Re-)initialisation of all symmetry stuff for point group C_1.

 KPOINTS: Automatic mesh

Automatic generation of k-mesh.
Space group operators:
 irot       det(A)        alpha          n_x          n_y          n_z        tau_x        tau_y        tau_z
    1     1.000000     0.000000     1.000000     0.000000     0.000000     0.000000     0.000000     0.000000

 Subroutine IBZKPT returns following result:

 Found     34 irreducible k-points:

 Following reciprocal coordinates:
            Coordinates               Weight
  0.000000  0.000000  0.000000      1.000000
  0.125000  0.000000  0.000000      2.000000
  0.250000  0.000000  0.000000      2.000000
  0.375000  0.000000  0.000000      2.000000
  0.500000  0.000000  0.000000      1.000000
[...]
      46 -38.2924      47 -38.6224      48 -38.5783      49 -38.2427      50 -38.2496
      51 -38.1869      52 -54.1501      53 -38.2051      54 -38.2104      55 -38.1849

 E-fermi :  -0.6158     XC(G=0):  -6.2226     alpha+bet : -4.9412

[...]

 k-point    34 :       0.5000    0.5000    0.0000
  band No.  band energies     occupation
      1     -16.8102      2.00000
      2     -14.9273      2.00000
      3     -14.3327      2.00000
      4     -12.5398      2.00000
      5     -11.3344      2.00000
      6     -10.3127      2.00000
      7      -8.7930      2.00000
      8      -8.7597      2.00000
      9      -8.7188      2.00000
     10      -8.2821      2.00000
     11      -7.6834      2.00000
     12      -7.5209      2.00000
     13      -7.3205      2.00000
     14      -7.3068      2.00000
     15      -7.2412      2.00000
     16      -7.0496      2.00000
     17      -6.8779      2.00000
     18      -6.7495      2.00000
     19      -6.4820      2.00000
     20      -6.4533      2.00000
     21      -6.4198      2.00000
     22      -6.4061      2.00000
     23      -6.3955      2.00000
     24      -6.3677      2.00000
     25      -6.3592      2.00000
     26      -6.3540      2.00000
     27      -6.3447      2.00000
     28      -6.3120      2.00000
     29      -6.3024      2.00000
     30      -6.2556      2.00000
     31      -6.2030      2.00000
     32      -6.1873      2.00000
     33      -6.1761      2.00000
     34      -6.1351      2.00000
     35      -6.0801      2.00000
     36      -5.9957      2.00000
     37      -5.8383      2.00000
     38      -5.8313      2.00000
     39      -5.8234      2.00000
     40      -5.8168      2.00000
     41      -5.7363      2.00000
     42      -5.5852      2.00000
     43      -5.5672      2.00000
     44      -5.5648      2.00000
     45      -5.5626      2.00000
     46      -5.5444      2.00000
     47      -5.5144      2.00000
     48      -5.4218      2.00000
     49      -5.4135      2.00000
     50      -5.3658      2.00000
     51      -5.3141      2.00000
     52      -5.2756      2.00000
     53      -5.2703      2.00000
     54      -5.2586      2.00000
     55      -5.2248      2.00000
     56      -5.1660      2.00000
     57      -5.1233      2.00000
     58      -5.0898      2.00000
     59      -5.0244      2.00000
     60      -5.0046      2.00000
[...]
    226       2.0866      0.00000
    227       2.1800      0.00000
    228       2.4136      0.00000
    229       2.4284      0.00000
    230       2.4955      0.00000
    231       2.6910      0.00000
    232       2.8283      0.00000
    233       2.8671      0.00000
    234       2.9625      0.00000
    235       3.2200      0.00000
    236       3.3491      0.00000
    237       3.6039      0.00000
    238       4.2455      0.00000
    239       4.3665      0.00000
    240       4.4669      0.00000

 soft charge-density along one line, spin component           1
         0         1         2         3         4         5         6         7         8         9
 total charge-density along one line

------------------------ aborting loop because EDIFF is reached ----------------------------------------

 VOLUME and BASIS-vectors are now :
  energy-cutoff  :      396.00
  volume of cell :     1665.84
      direct lattice vectors                 reciprocal lattice vectors
     8.455582619  0.000000000  0.000000000     0.118265062 -0.068280376  0.000000000
     4.227791797  7.322749070  0.000000000     0.000000000  0.136560736  0.000000000
     0.000000000  0.000000000 26.903955460     0.000000000  0.000000000  0.037169256

  length of vectors
     8.455582619  8.455582619 26.903955460     0.136560736  0.136560736  0.037169256

 FORCES acting on ions
    electron-ion (+dipol)            ewald-force                    non-local-force                 convergence-correction
   -.259E+00 -.158E+00 0.271E+04   0.312E+00 0.174E+00 -.271E+04   -.562E-02 0.115E-02 0.131E+00   -.204E-02 0.968E-03 0.125E-03
   0.593E+00 0.136E+00 0.271E+04   -.572E+00 -.193E+00 -.271E+04   -.247E-01 0.468E-01 0.199E+00   0.162E-02 -.866E-03 0.359E-03
   -.252E+00 -.205E+00 0.271E+04   0.257E+00 0.221E+00 -.271E+04   -.672E-02 -.136E-01 0.125E+00   0.422E-03 0.110E-03 0.165E-03
   0.436E+00 0.479E+00 0.271E+04   -.448E+00 -.433E+00 -.271E+04   0.131E-01 -.474E-01 0.208E+00   -.179E-02 0.149E-02 0.197E-03
   -.188E+00 -.652E-01 0.271E+04   0.211E+00 0.685E-01 -.271E+04   -.271E-01 -.117E-01 0.165E+00   0.187E-02 -.317E-03 0.166E-03
   -.195E+00 0.453E-01 0.271E+04   0.231E+00 -.505E-01 -.271E+04   0.149E-03 0.382E-02 0.135E+00   -.105E-03 0.276E-03 0.249E-03
   -.284E+00 -.183E+00 0.271E+04   0.306E+00 0.160E+00 -.271E+04   -.145E-01 0.677E-02 0.130E+00   -.153E-02 0.652E-03 -.666E-04
   -.925E-01 -.237E+00 0.271E+04   0.117E+00 0.259E+00 -.271E+04   -.185E-02 0.100E-02 0.136E+00   0.141E-02 -.168E-02 0.131E-03
   0.440E+00 0.201E+00 0.271E+04   -.425E+00 -.206E+00 -.271E+04   -.229E-02 0.329E-02 0.162E+00   0.113E-03 -.652E-03 0.254E-03
   0.599E+01 0.367E+01 0.108E+04   -.593E+01 -.365E+01 -.108E+04   -.996E-01 -.392E-01 -.392E-01   -.972E-03 -.567E-03 0.153E-01
   -.154E+01 -.103E+01 0.109E+04   0.149E+01 0.999E+00 -.109E+04   0.198E-01 0.158E-01 -.620E-01   0.530E-03 0.179E-03 0.129E-01
   -.283E+01 -.143E+01 0.109E+04   0.288E+01 0.149E+01 -.109E+04   -.606E-01 -.249E-02 0.192E-01   0.288E-03 0.131E-02 0.121E-01
   -.117E+01 -.764E+00 0.109E+04   0.113E+01 0.723E+00 -.109E+04   0.203E-02 0.407E-01 -.649E-01   0.942E-04 -.960E-03 0.123E-01
   -.107E+01 -.434E+00 0.109E+04   0.111E+01 0.448E+00 -.109E+04   -.390E-01 0.276E-02 0.199E-01   0.400E-03 -.123E-02 0.122E-01
   0.311E+01 0.267E+01 0.109E+04   -.307E+01 -.276E+01 -.109E+04   -.900E-01 0.110E-01 0.173E-01   -.396E-03 -.402E-03 0.110E-01
   -.276E+01 -.271E+01 0.109E+04   0.286E+01 0.273E+01 -.109E+04   -.556E-01 -.147E-01 0.128E-01   0.131E-02 0.109E-02 0.137E-01
   0.410E+01 0.711E+00 0.109E+04   -.415E+01 -.626E+00 -.109E+04   -.550E-01 -.584E-01 0.289E-01   0.396E-03 0.371E-03 0.130E-01
   0.910E-01 -.366E+00 0.109E+04   -.830E-01 0.365E+00 -.109E+04   -.196E-01 0.554E-02 -.754E-01   -.168E-02 0.136E-03 0.107E-01
   0.908E+01 0.539E+01 -.521E+03   -.918E+01 -.545E+01 0.521E+03   0.847E-01 0.492E-01 0.297E+00   0.139E-02 -.103E-02 0.248E-01
   -.301E+01 0.603E+01 -.539E+03   0.331E+01 -.582E+01 0.539E+03   -.318E+00 -.213E+00 -.698E-01   -.262E-02 -.513E-03 0.257E-01
   -.687E+01 0.457E+01 -.562E+03   0.657E+01 -.437E+01 0.562E+03   0.307E+00 -.196E+00 -.107E+00   0.247E-02 -.357E-02 0.214E-01
   0.371E+01 -.543E+01 -.535E+03   -.341E+01 0.558E+01 0.535E+03   -.325E+00 -.171E+00 -.387E-01   0.140E-03 -.129E-02 0.267E-01
   -.395E+01 -.242E+01 -.550E+03   0.375E+01 0.233E+01 0.550E+03   0.222E+00 0.105E+00 -.374E-01   0.507E-03 0.168E-02 0.253E-01
   0.890E+00 0.133E+01 -.531E+03   -.934E+00 -.141E+01 0.531E+03   0.547E-01 0.844E-01 0.168E+00   -.140E-02 0.323E-03 0.260E-01
   0.134E+00 -.808E+01 -.566E+03   -.114E+00 0.772E+01 0.566E+03   -.176E-01 0.363E+00 -.150E+00   -.222E-03 0.394E-02 0.222E-01
   0.184E+01 0.365E-01 -.531E+03   -.194E+01 -.250E-01 0.531E+03   0.101E+00 -.500E-02 0.186E+00   -.194E-02 -.120E-03 0.267E-01
   -.181E+01 -.105E+01 -.535E+03   0.189E+01 0.110E+01 0.535E+03   -.803E-01 -.516E-01 0.138E+00   0.186E-02 0.158E-02 0.280E-01
   -.128E+02 0.895E+01 -.219E+04   0.127E+02 -.905E+01 0.219E+04   0.557E-01 0.902E-01 -.275E+00   -.156E-02 -.428E-03 -.351E-02
   0.706E+02 0.414E+02 -.205E+04   -.711E+02 -.418E+02 0.205E+04   0.479E+00 0.396E+00 0.343E+00   0.284E-02 0.875E-03 -.363E-02
   -.878E+02 0.696E+02 -.207E+04   0.880E+02 -.698E+02 0.207E+04   -.164E+00 0.185E+00 -.200E+01   0.117E-03 -.288E-02 -.644E-02
   0.133E+02 -.119E+03 -.208E+04   -.136E+02 0.119E+03 0.208E+04   0.324E+00 -.640E-01 -.202E+01   -.118E-02 0.488E-02 -.374E-02
   -.543E+02 -.335E+02 -.215E+04   0.545E+02 0.337E+02 0.215E+04   -.230E+00 -.209E+00 -.788E-01   -.454E-02 0.510E-04 -.401E-02
   0.491E+02 -.193E+02 -.215E+04   -.492E+02 0.195E+02 0.215E+04   0.156E+00 -.136E+00 -.642E-01   0.542E-02 -.294E-02 -.541E-02
   -.151E+02 -.288E+01 -.218E+04   0.151E+02 0.291E+01 0.219E+04   -.579E-02 -.412E-01 -.369E+00   0.292E-02 -.217E-03 -.321E-02
   0.524E+01 -.111E+02 -.219E+04   -.535E+01 0.111E+02 0.219E+04   0.110E+00 -.894E-02 -.285E+00   -.119E-02 -.364E-02 -.307E-02
   0.806E+01 0.546E+02 -.215E+04   -.807E+01 -.547E+02 0.215E+04   0.185E-01 0.139E+00 -.549E-01   -.141E-02 0.561E-02 -.629E-02
   0.614E+02 -.815E+02 -.102E+04   -.612E+02 0.809E+02 0.102E+04   -.143E+00 0.608E+00 -.313E+00   -.773E-03 0.476E-03 -.307E-02
   0.128E+03 -.750E+02 -.102E+04   -.129E+03 0.752E+02 0.102E+04   0.967E+00 -.171E+00 -.315E-01   -.155E-02 -.205E-03 -.120E-02
   -.284E+02 -.118E+03 -.104E+04   0.279E+02 0.118E+03 0.104E+04   0.575E+00 -.206E+00 -.136E+01   -.238E-02 0.115E-02 -.195E-02
   -.124E+03 0.382E+01 -.104E+04   0.124E+03 -.415E+01 0.104E+04   -.200E+00 0.317E+00 -.156E+01   -.324E-03 -.133E-02 -.149E-02
   -.570E+02 0.120E+03 -.100E+04   0.565E+02 -.121E+03 0.100E+04   0.449E+00 0.739E+00 -.568E+00   -.160E-02 -.207E-02 -.184E-02
   -.506E+02 0.276E+02 -.100E+04   0.506E+02 -.275E+02 0.100E+04   0.323E-01 -.156E+00 -.249E+00   -.483E-03 -.129E-02 -.255E-02
   0.630E+02 -.807E+01 -.256E+03   -.678E+02 0.753E+01 0.258E+03   0.478E+01 0.555E+00 -.274E+01   -.394E-04 -.332E-04 -.635E-03
   -.238E+02 -.564E+02 -.262E+03   0.265E+02 0.604E+02 0.264E+03   -.273E+01 -.403E+01 -.264E+01   -.262E-03 -.116E-04 -.576E-03
   0.456E+02 -.562E+02 -.261E+03   -.487E+02 0.609E+02 0.261E+03   0.312E+01 -.467E+01 0.635E-01   0.924E-04 -.432E-03 -.445E-03
   0.570E+02 0.293E+02 -.240E+03   -.601E+02 -.330E+02 0.238E+03   0.311E+01 0.377E+01 0.251E+01   0.684E-04 0.244E-03 -.265E-03
   -.341E+02 -.641E+02 -.285E+03   0.367E+02 0.687E+02 0.287E+03   -.264E+01 -.461E+01 -.186E+01   -.137E-03 0.579E-03 -.538E-03
   -.726E+02 -.150E+02 -.283E+03   0.780E+02 0.163E+02 0.284E+03   -.535E+01 -.132E+01 -.141E+01   0.712E-03 0.537E-04 -.451E-03
   0.388E+02 0.470E+02 -.233E+03   -.429E+02 -.494E+02 0.230E+03   0.409E+01 0.246E+01 0.285E+01   0.346E-03 0.197E-03 -.226E-03
   -.512E+02 0.545E+02 -.260E+03   0.551E+02 -.584E+02 0.261E+03   -.394E+01 0.395E+01 -.488E+00   -.452E-03 0.141E-03 -.637E-03
   -.588E+02 -.418E+01 -.263E+03   0.631E+02 0.483E+01 0.266E+03   -.429E+01 -.653E+00 -.347E+01   -.295E-04 -.182E-03 -.331E-03
   0.615E+02 0.112E+03 -.926E+03   -.612E+02 -.111E+03 0.926E+03   -.265E+00 -.467E+00 0.105E+00   0.716E-03 -.143E-03 -.353E-02
   -.218E+02 0.626E+02 -.226E+03   0.247E+02 -.673E+02 0.226E+03   -.283E+01 0.476E+01 -.362E+00   0.637E-04 0.187E-04 -.642E-03
   0.285E+02 0.358E+01 -.246E+03   -.305E+02 -.248E+01 0.251E+03   0.206E+01 -.111E+01 -.505E+01   -.156E-03 0.103E-03 -.447E-03
   0.569E+02 0.276E+02 -.208E+03   -.611E+02 -.285E+02 0.204E+03   0.426E+01 0.899E+00 0.337E+01   0.137E-03 0.736E-04 -.654E-03
   -.134E+01 -.929E+00 0.161E+02   0.142E-13 0.178E-12 0.315E-11   0.134E+01 0.927E+00 -.164E+02   -.451E-02 -.448E-03 0.281E+00

 POSITION                                       TOTAL-FORCE (eV/Angst)
      0.00000      0.00000     10.00000         0.046008      0.018310     -0.165725
      2.81853      0.00000     10.00000        -0.001602     -0.011331     -0.260775
      5.63706      0.00000     10.00000        -0.000996      0.001815     -0.189284
      1.40926      2.44092     10.00000        -0.000172      0.000221     -0.263340
      4.22779      2.44092     10.00000        -0.002484     -0.008598     -0.163071
      7.04632      2.44092     10.00000         0.036289     -0.001081     -0.188970
      2.81853      4.88183     10.00000         0.006319     -0.015638     -0.194287
      5.63706      4.88183     10.00000         0.024092      0.021351     -0.193927
      8.45558      4.88183     10.00000         0.013308     -0.002551     -0.187131
      1.40926      0.81364     12.30132        -0.049594     -0.016624      0.073877
      4.22779      0.81364     12.30132        -0.028946     -0.010562      0.014424
      7.04632      0.81364     12.30132        -0.008613      0.057396      0.295931
      2.81853      3.25455     12.30132        -0.041358     -0.001085      0.005806
      5.63705      3.25455     12.30132         0.008467      0.015573      0.357660
      8.45558      3.25455     12.30132        -0.041873     -0.074966      0.169784
      4.22779      5.69547     12.30132         0.036777      0.005318      0.287683
      7.04632      5.69547     12.30132        -0.101326      0.026169      0.172995
      9.86485      5.69547     12.30132        -0.013276      0.004753      0.060743
      2.77493      1.61660     14.56788        -0.011868     -0.011250      0.025502
      5.62720      1.63948     14.61431        -0.021941     -0.011875      0.035515
      8.40079      1.63560     14.62995         0.010718     -0.005434      0.040010
      4.21470      4.07859     14.60772        -0.024060     -0.021825      0.027569
      7.00783      4.06472     14.62304         0.025744      0.011435      0.007370
      9.83457      4.06198     14.57864         0.008924     -0.003905      0.029623
      5.60189      6.48160     14.63457         0.002519      0.003892      0.041738
      8.42249      6.51271     14.57917         0.006951      0.006460      0.028163
     11.24759      6.51182     14.58852         0.001836     -0.001458      0.021011
      9.78895      2.42972     16.92181         0.002523     -0.002651      0.014686
      4.12266      2.41002     16.86173        -0.019813     -0.013918     -0.011366
      6.97233      2.46085     17.12188         0.002153      0.003241      0.004114
      5.56198      4.84192     17.11440        -0.004638     -0.017727     -0.005177
      8.40045      4.88763     16.89458         0.009501      0.006200     -0.009637
     11.19885      4.88012     16.89698        -0.015074      0.011942      0.015635
     12.61469      7.31821     16.93807        -0.017075     -0.012022      0.006650
      6.96845      7.30814     16.92451         0.000016     -0.002279      0.013731
      9.79789      7.31578     16.90268         0.000602     -0.015454      0.020815
      4.72723      3.54916     21.31267        -0.021293      0.014317      0.010399
      4.42432      4.00885     19.86775         0.028697      0.009444      0.008457
      5.75558      4.22499     19.15672         0.015993      0.008228      0.005996
      6.64935      3.01404     19.17720        -0.002969     -0.008675      0.014489
      6.09585      1.82239     19.95424         0.009196      0.016768      0.019404
      5.53272      2.21688     21.35779        -0.004738     -0.017838     -0.002472
      3.77324      3.43094     21.85431         0.021171      0.016376     -0.004469
      5.28141      4.35237     21.82731         0.024733     -0.007394      0.001066
      3.82088      4.93008     19.86534         0.016184      0.020117      0.000319
      3.81813      3.23424     19.36140         0.022120      0.015233     -0.007707
      6.27527      5.12138     19.53490         0.022940      0.024316      0.009781
      7.68018      3.27382     19.46185         0.023709     -0.004049      0.034601
      5.27290      1.34944     19.39108        -0.021433      0.010281     -0.021835
      6.87524      1.05086     20.06213        -0.015423     -0.004826     -0.000081
      6.38701      2.34847     22.04466         0.008940      0.000061     -0.017626
      4.66280      1.06007     21.87969         0.012819      0.017866      0.004225
      5.23401      0.12097     21.94663         0.013723     -0.012947     -0.017625
      4.25956      1.28981     22.87774         0.021356     -0.022926      0.010309
      3.81140      0.89013     21.19793        -0.013764     -0.006191      0.014421
    total drift:                               -0.000553     -0.002299     -0.001512

  FREE ENERGIE OF THE ION-ELECTRON SYSTEM (eV)
  free  energy   TOTEN  =      -253.48938514 eV

  energy  without entropy=     -253.44690937  energy(sigma->0) =     -253.47876620

 d Force = 0.6267915E-03[ 0.502E-03, 0.752E-03]  d Energy = 0.6257781E-03 0.101E-05
 d Force = 0.1261068E+02[ 0.126E+02, 0.126E+02]  d Ewald  = 0.1261067E+02 0.105E-05

 Conjugate gradient step on ions:
 trial-energy change:   -0.000626  1 .order   -0.000627   -0.000752   -0.000502
  (g-gl).g = 0.518E-03      g.g   = 0.436E-03  gl.gl    = 0.215E-02
 g(Force)  = 0.436E-03   g(Stress)= 0.000E+00 ortho     =-0.641E-04
 gamma     =   0.24153
 trial     =   1.78888
 opt step  =   5.38677  (harmonic =   5.38677) maximal distance =0.00341011
 next E    =  -253.489891   (d E  =  -0.00113)

 reached required accuracy - stopping structural energy minimisation
 writing wavefunctions