 vasp.5.4.4.18Apr17-6-g9f103f2a35 (build Sep 11 2020 00:39:59) complex

 executed on           VASP@albus date 2021.05.15  08:30:38

 INCAR:
 POTCAR:   PAW_PBE Pt 05Jan2001
 POTCAR:   PAW_PBE C 08Apr2002
 POTCAR:   PAW_PBE H 15Jun2001
 POTCAR:   PAW_PBE C 08Apr2002
 POTCAR:   PAW_PBE H 15Jun2001

 POTCAR:   PAW_PBE Pt 05Jan2001
   VRHFIN =Pt: s1d9

   TITEL  = PAW_PBE Pt 05Jan2001
   POMASS =  195.080; ZVAL   =   10.000    mass and valenz
   ENMAX  =  230.283; ENMIN  =  172.712 eV
   QCUT   =   -4.114; QGAM   =    8.228    optimization parameters

   Description
     l     E      TYP  RCUT    TYP  RCUT
     2   .000     23  2.500
     2   .000     23  2.500
     0   .000     23  2.500
     0   .000     23  2.500
     1  -.200     23  2.500
     1  1.500     23  2.500
     3   .000      7   .000

 POTCAR:   PAW_PBE C 08Apr2002
   VRHFIN =C: s2p2

   TITEL  = PAW_PBE C 08Apr2002
   POMASS =   12.011; ZVAL   =    4.000    mass and valenz
   ENMAX  =  400.000; ENMIN  =  300.000 eV
   QCUT   =   -5.516; QGAM   =   11.032    optimization parameters

[...]

 POTCAR:   PAW_PBE H 15Jun2001
   VRHFIN =H: ultrasoft test

   TITEL  = PAW_PBE H 15Jun2001
   POMASS =    1.000; ZVAL   =    1.000    mass and valenz
   ENMAX  =  250.000; ENMIN  =  200.000 eV
   QCUT   =   -5.749; QGAM   =   11.498    optimization parameters

[...]

 POTCAR:   PAW_PBE C 08Apr2002
   VRHFIN =C: s2p2

   TITEL  = PAW_PBE C 08Apr2002
   POMASS =   12.011; ZVAL   =    4.000    mass and valenz
   ENMAX  =  400.000; ENMIN  =  300.000 eV
   QCUT   =   -5.516; QGAM   =   11.032    optimization parameters

[...]

 POTCAR:   PAW_PBE H 15Jun2001
   VRHFIN =H: ultrasoft test

   TITEL  = PAW_PBE H 15Jun2001
   POMASS =    1.000; ZVAL   =    1.000    mass and valenz
   ENMAX  =  250.000; ENMIN  =  200.000 eV
   QCUT   =   -5.749; QGAM   =   11.498    optimization parameters

   Description
     l     E      TYP  RCUT    TYP  RCUT
     0   .000     23  1.100
     0   .500     23  1.100
     1  -.300     23  1.100

 Optimization of the real space projectors (new method)

 maximal supplied QI-value         = 15.12
 optimisation between [QCUT,QGAM] = [ 10.13, 20.26] = [ 28.73,114.92] Ry
 Optimized for a Real-space Cutoff    1.52 Angstroem

   l    n(q)    QCUT    max X(q) W(low)/X(q) W(high)/X(q)  e(spline)
   2      8    10.129     3.643    0.62E-04    0.19E-04    0.48E-07
   2      8    10.129    46.462    0.29E-03    0.41E-03    0.31E-06
   0      9    10.129    13.796    0.15E-04    0.14E-04    0.48E-08
   0      9    10.129    57.669    0.22E-03    0.23E-03    0.89E-07
   1      9    10.129     7.440    0.50E-04    0.32E-04    0.34E-07
   1      9    10.129    10.255    0.23E-03    0.57E-04    0.13E-06
 Optimization of the real space projectors (new method)

[...]

   l    n(q)    QCUT    max X(q) W(low)/X(q) W(high)/X(q)  e(spline)
   0      8    10.053     5.582    0.38E-04    0.40E-04    0.62E-07
   0      8    10.053    69.432    0.43E-03    0.68E-03    0.18E-06
   1      7    10.053     2.780    0.81E-04    0.10E-03    0.11E-06
   1      7    10.053     4.549    0.23E-03    0.15E-03    0.21E-06
 Optimization of the real space projectors (new method)

 maximal supplied QI-value         = 34.20
 optimisation between [QCUT,QGAM] = [  9.92, 20.18] = [ 27.55,114.04] Ry
 Optimized for a Real-space Cutoff    1.27 Angstroem

   l    n(q)    QCUT    max X(q) W(low)/X(q) W(high)/X(q)  e(spline)
   0      8     9.919     4.436    0.78E-04    0.69E-04    0.53E-07
   0      8     9.919    16.131    0.45E-03    0.25E-03    0.29E-06
   1      7     9.919     4.654    0.17E-03    0.70E-03    0.31E-06

 PAW_PBE Pt 05Jan2001                   :
 PAW_PBE C 08Apr2002                    :
 PAW_PBE H 15Jun2001                    :
 PAW_PBE C 08Apr2002                    :
 PAW_PBE H 15Jun2001                    :

 POSCAR: Pt
  positions in direct lattice
  velocities in cartesian coordinates
 exchange correlation table for  LEXCH =       41
   RHO(1)=    0.500       N(1)  =     2000
   RHO(2)=  100.500       N(2)  =     4000

 ion  position               nearest neighbor table
   1  0.000  0.000  0.372-   3 2.82  10 2.82   4 2.82   7 2.82  12 2.82  16 2.82   2 2.82   6 2.82
                             8 2.82
   2  0.333  0.000  0.372-   9 2.82  11 2.82   5 2.82   8 2.82  17 2.82   3 2.82   1 2.82  10 2.82
                             4 2.82
   3  0.667  0.000  0.372-   1 2.82  12 2.82   7 2.82   6 2.82  18 2.82   2 2.82  11 2.82   5 2.82
                             9 2.82
   4  1.000  0.333  0.372-   9 2.82   6 2.82   7 2.82  15 2.82   1 2.82  13 2.82   5 2.82  10 2.82
                             2 2.82
   5  0.333  0.333  0.372-   7 2.82  13 2.82  14 2.82   8 2.82   2 2.82   4 2.82   6 2.82  11 2.82
                             3 2.82
   6  0.667  0.333  0.372-   8 2.82   9 2.82   4 2.82  15 2.82   3 2.82  14 2.82   5 2.82   1 2.82
                            12 2.82
   7  0.000  0.667  0.372-   5 2.82   4 2.82  16 2.82   3 2.82   1 2.82  18 2.82   8 2.82  13 2.82
                             9 2.82
   8  0.333  0.667  0.372-   9 2.82   6 2.82   5 2.82  17 2.82   2 2.82   7 2.82  14 2.82   1 2.82
                            16 2.82
   9  0.667  0.667  0.372-   8 2.82   6 2.82   4 2.82   2 2.82  17 2.82  15 2.82  18 2.82   7 2.82
                             3 2.82
  10  0.111  0.111  0.457-  21 2.80  15 2.82  12 2.82  13 2.82   1 2.82  16 2.82  11 2.82   4 2.82
                            17 2.82   2 2.82  25 2.83  19 2.85
  11  0.444  0.111  0.457-  20 2.80  14 2.82  13 2.82   2 2.82  17 2.82  10 2.82  12 2.82   5 2.82
                            18 2.82   3 2.82  19 2.85  26 2.86
  12  0.778  0.111  0.457-  27 2.78  20 2.81  21 2.81  15 2.82  10 2.82  14 2.82   3 2.82  16 2.82
                            18 2.82   1 2.82  11 2.82   6 2.82
  13  0.111  0.444  0.457-  22 2.82  14 2.82  11 2.82   5 2.82  10 2.82  16 2.82   4 2.82  18 2.82
                             7 2.82  15 2.82  24 2.84  19 2.87
  14  0.444  0.444  0.457-  20 2.79  22 2.81  13 2.82  11 2.82   5 2.82  12 2.82  16 2.82   6 2.82
                            15 2.82   8 2.82  17 2.82  23 2.87
  15  0.778  0.444  0.457-  21 2.78  12 2.82  10 2.82   6 2.82   4 2.82  17 2.82  14 2.82   9 2.82
                            13 2.82  18 2.82  24 2.82  23 2.87
  16  0.111  0.778  0.457-  27 2.79  22 2.81  18 2.82   7 2.82  12 2.82  14 2.82  13 2.82  10 2.82
                             1 2.82  17 2.82   8 2.82  25 2.86
  17  0.444  0.778  0.457-   9 2.82   8 2.82  15 2.82  11 2.82   2 2.82  16 2.82  18 2.82  10 2.82
                            14 2.82  23 2.84  25 2.84  26 2.86
  18  0.778  0.778  0.457-  27 2.79  16 2.82  12 2.82   7 2.82   3 2.82  17 2.82  13 2.82  11 2.82
                             9 2.82  15 2.82  24 2.82  26 2.88
  19  0.224  0.220  0.545-  25 2.78  26 2.79  29 2.81  28 2.81  20 2.81  21 2.81  22 2.84  11 2.85
                            10 2.85  24 2.86  13 2.87  35 3.01
  20  0.554  0.225  0.542-  14 2.79  36 2.80  22 2.80  11 2.80  12 2.81  19 2.81  30 2.82  27 2.83
                            21 2.83  26 2.83  23 2.84  29 2.86
  21  0.888  0.226  0.542-  34 2.78  15 2.78  24 2.79  10 2.80  12 2.81  19 2.81  30 2.83  23 2.83
                            20 2.83  25 2.83  27 2.84  28 2.86
  22  0.223  0.556  0.543-  33 2.80  20 2.80  16 2.81  23 2.81  14 2.81  13 2.82  27 2.83  25 2.83
                            19 2.84  29 2.84  24 2.85  31 2.90
  23  0.553  0.560  0.545-  30 2.76  26 2.79  25 2.79  24 2.80  22 2.81  21 2.83  20 2.84  17 2.84
                            14 2.87  15 2.87  31 2.90  32 2.97
  24  0.885  0.558  0.543-  33 2.78  21 2.79  23 2.80  26 2.81  18 2.82  15 2.82  27 2.82  28 2.83
                            13 2.84  22 2.85  19 2.86  32 2.97
  25  0.223  0.891  0.544-  34 2.78  19 2.78  26 2.79  23 2.79  21 2.83  10 2.83  22 2.83  27 2.84
                            17 2.84  16 2.86  31 2.90  35 3.00
  26  0.553  0.890  0.545-  36 2.77  19 2.79  25 2.79  23 2.79  24 2.81  20 2.83  27 2.83  11 2.86
                            17 2.86  18 2.88  32 2.96  35 2.97
  27  0.888  0.890  0.541-  12 2.78  18 2.79  16 2.79  34 2.80  36 2.82  33 2.82  24 2.82  20 2.83
                            22 2.83  26 2.83  25 2.84  21 2.84
  28  0.999  0.336  0.629-  32 2.80  33 2.80  34 2.81  19 2.81  29 2.81  30 2.82  24 2.83  21 2.86
                            35 2.88
  29  0.332  0.335  0.629-  31 2.80  36 2.81  19 2.81  28 2.81  33 2.82  30 2.82  22 2.84  20 2.86
                            35 2.87
  30  0.664  0.338  0.627-  23 2.76  34 2.79  36 2.80  29 2.82  32 2.82  20 2.82  28 2.82  21 2.83
                            31 2.83
  31  0.326  0.669  0.633-  41 2.11  33 2.78  29 2.80  35 2.81  30 2.83  34 2.84  25 2.90  23 2.90
                            22 2.90  32 2.90
  32  0.670  0.667  0.637-  38 2.15  33 2.79  35 2.80  28 2.80  30 2.82  36 2.86  31 2.90  26 2.96
                            24 2.97  23 2.97
  33  0.999  0.667  0.627-  24 2.78  31 2.78  32 2.79  22 2.80  28 2.80  29 2.82  27 2.82  36 2.83
                            34 2.85
  34  0.993  0.007  0.626-  36 2.77  21 2.78  25 2.78  30 2.79  27 2.80  28 2.81  31 2.84  33 2.85
                            35 2.88
  35  0.337  0.995  0.638-  42 2.23  40 2.26  32 2.80  31 2.81  36 2.85  29 2.87  28 2.88  34 2.88
                            26 2.97  25 3.00  19 3.01
  36  0.667  0.005  0.627-  34 2.77  26 2.77  20 2.80  30 2.80  29 2.81  27 2.82  33 2.83  35 2.85
                            32 2.86
  37  0.611  0.562  0.741-  43 1.10  44 1.11  39 1.55  38 1.55
  38  0.630  0.717  0.715-  40 1.50  50 1.53  37 1.55  32 2.15
  39  0.418  0.583  0.741-  45 1.10  46 1.11  41 1.53  37 1.55
  40  0.458  0.899  0.715-  47 1.09  42 1.43  38 1.50  35 2.26
  41  0.277  0.739  0.709-  48 1.10  42 1.49  39 1.53  31 2.11
  42  0.284  0.911  0.712-  49 1.09  40 1.43  41 1.49  35 2.23
  43  0.710  0.431  0.723-  37 1.10
  44  0.655  0.556  0.780-  37 1.11
  45  0.424  0.455  0.730-  39 1.10
  46  0.365  0.612  0.780-  39 1.11
  47  0.466  0.015  0.730-  40 1.09
  48  0.139  0.764  0.716-  41 1.10
  49  0.163  0.034  0.726-  42 1.09
  50  0.789  0.728  0.739-  51 1.10  52 1.10  53 1.11  38 1.53
  51  0.806  0.837  0.722-  50 1.10
  52  0.918  0.598  0.735-  50 1.10
  53  0.762  0.758  0.779-  50 1.11

IMPORTANT INFORMATION: All symmetrisations will be switched off!
NOSYMM: (Re-)initialisation of all symmetry stuff for point group C_1.

 KPOINTS: Automatic mesh

Automatic generation of k-mesh.
Space group operators:
 irot       det(A)        alpha          n_x          n_y          n_z        tau_x        tau_y        tau_z
    1     1.000000     0.000000     1.000000     0.000000     0.000000     0.000000     0.000000     0.000000

 Subroutine IBZKPT returns following result:

 Found     34 irreducible k-points:

 Following reciprocal coordinates:
            Coordinates               Weight
  0.000000  0.000000  0.000000      1.000000
  0.125000  0.000000  0.000000      2.000000
  0.250000  0.000000  0.000000      2.000000
  0.375000  0.000000  0.000000      2.000000
  0.500000  0.000000  0.000000      1.000000
  0.000000  0.125000  0.000000      2.000000
  0.125000  0.125000  0.000000      2.000000
[...]
      21 -57.1862      22 -57.1568      23 -57.0921      24 -57.1562      25 -57.0883
      26 -57.0606      27 -57.2036      28 -56.7283      29 -56.7248      30 -56.7936
      31 -57.1753      32 -57.1236      33 -56.8161      34 -56.7887      35 -57.3570
      36 -56.7756      37 -54.7401      38 -55.5771      39 -54.7505      40 -55.7996
      41 -55.2933      42 -55.7855      43 -38.4530      44 -38.6268      45 -38.4589
      46 -38.6308      47 -39.3091      48 -38.7512      49 -39.3037      50 -54.5573
      51 -38.5184      52 -38.5255      53 -38.6486

 E-fermi :  -0.4626     XC(G=0):  -6.0619     alpha+bet : -4.9081

[...]

 k-point    34 :       0.5000    0.5000    0.0000
  band No.  band energies     occupation
      1     -17.4739      2.00000
      2     -15.4484      2.00000
      3     -15.0627      2.00000
      4     -13.0248      2.00000
      5     -11.5404      2.00000
      6     -11.0356      2.00000
      7      -8.8691      2.00000
      8      -8.6377      2.00000
      9      -8.5767      2.00000
     10      -8.3276      2.00000
     11      -8.0736      2.00000
     12      -7.4445      2.00000
     13      -7.3877      2.00000
     14      -7.2294      2.00000
     15      -7.1645      2.00000
     16      -7.1195      2.00000
     17      -6.9351      2.00000
     18      -6.7414      2.00000
     19      -6.6261      2.00000
     20      -6.5836      2.00000
     21      -6.3545      2.00000
     22      -6.2905      2.00000
     23      -6.2614      2.00000
     24      -6.2456      2.00000
     25      -6.2287      2.00000
     26      -6.2090      2.00000
     27      -6.1953      2.00000
     28      -6.1866      2.00000
     29      -6.1640      2.00000
     30      -6.1242      2.00000
     31      -6.1220      2.00000
     32      -6.0714      2.00000
     33      -6.0502      2.00000
     34      -6.0265      2.00000
     35      -5.9824      2.00000
     36      -5.9776      2.00000
     37      -5.9024      2.00000
     38      -5.8708      2.00000
     39      -5.6931      2.00000
     40      -5.6845      2.00000
     41      -5.6669      2.00000
     42      -5.6350      2.00000
     43      -5.5449      2.00000
     44      -5.5205      2.00000
     45      -5.4673      2.00000
     46      -5.4380      2.00000
     47      -5.4071      2.00000
     48      -5.3874      2.00000
     49      -5.3702      2.00000
     50      -5.3231      2.00000
     51      -5.2505      2.00000
     52      -5.2323      2.00000
     53      -5.2162      2.00000
     54      -5.1467      2.00000
     55      -5.1347      2.00000
     56      -5.1070      2.00000
     57      -5.0995      2.00000
     58      -5.0475      2.00000
     59      -4.9803      2.00000
     60      -4.9237      2.00000
[...]
    224       1.9752      0.00000
    225       2.2898      0.00000
    226       2.3536      0.00000
    227       2.5090      0.00000
    228       2.5229      0.00000
    229       2.6185      0.00000
    230       2.8162      0.00000
    231       2.9308      0.00000
    232       3.0530      0.00000
    233       3.1549      0.00000
    234       3.3050      0.00000
    235       3.4731      0.00000
    236       3.5675      0.00000
    237       3.7742      0.00000
    238       4.0903      0.00000

 soft charge-density along one line, spin component           1
         0         1         2         3         4         5         6         7         8         9
 total charge-density along one line

------------------------ aborting loop because EDIFF is reached ----------------------------------------

 VOLUME and BASIS-vectors are now :
  energy-cutoff  :      396.00
  volume of cell :     1665.84
      direct lattice vectors                 reciprocal lattice vectors
     8.455582619  0.000000000  0.000000000     0.118265062 -0.068280376  0.000000000
     4.227791797  7.322749070  0.000000000     0.000000000  0.136560736  0.000000000
     0.000000000  0.000000000 26.903955460     0.000000000  0.000000000  0.037169256

  length of vectors
     8.455582619  8.455582619 26.903955460     0.136560736  0.136560736  0.037169256

 FORCES acting on ions
    electron-ion (+dipol)            ewald-force                    non-local-force                 convergence-correction
   -.803E+00 0.366E-01 0.274E+04   0.805E+00 -.755E-01 -.274E+04   0.310E-02 0.131E-01 0.126E+00   0.606E-04 -.123E-04 -.180E-03
   -.224E+00 -.632E-01 0.274E+04   0.231E+00 0.716E-01 -.274E+04   -.119E-02 0.215E-01 0.111E+00   -.804E-04 0.168E-03 -.128E-04
   0.103E+01 0.197E+00 0.274E+04   -.104E+01 -.232E+00 -.274E+04   0.275E-03 0.126E-01 0.115E+00   0.224E-04 0.677E-04 -.224E-03
   -.612E+00 -.123E+00 0.274E+04   0.670E+00 0.875E-01 -.274E+04   0.199E-02 0.428E-01 0.180E+00   0.215E-03 -.345E-04 -.325E-03
   0.657E+00 0.169E+00 0.274E+04   -.692E+00 -.184E+00 -.274E+04   -.138E-01 0.300E-01 0.179E+00   -.204E-03 0.701E-04 -.327E-03
   -.331E-01 -.685E+00 0.274E+04   0.234E-01 0.723E+00 -.274E+04   0.252E-02 -.279E-01 0.830E-01   -.155E-04 -.116E-03 -.296E-03
   0.254E+00 0.705E+00 0.274E+04   -.243E+00 -.721E+00 -.274E+04   -.404E-02 -.285E-01 0.293E+00   0.110E-03 -.184E-03 -.345E-03
   -.471E+00 -.118E+00 0.274E+04   0.468E+00 0.106E+00 -.274E+04   -.345E-01 -.660E-02 0.124E+00   -.196E-03 0.356E-04 -.109E-03
   0.222E+00 -.233E+00 0.274E+04   -.227E+00 0.228E+00 -.274E+04   0.384E-01 -.103E-01 0.107E+00   0.838E-04 -.749E-05 -.149E-03
   -.708E+01 -.393E+00 0.111E+04   0.720E+01 0.470E+00 -.111E+04   -.159E-01 -.701E-01 0.237E-01   -.125E-04 -.675E-03 -.116E-02
   0.637E+01 0.217E+01 0.111E+04   -.648E+01 -.211E+01 -.111E+04   0.650E-02 -.784E-01 0.550E-01   -.974E-04 -.546E-03 -.118E-02
   0.640E+00 -.149E+01 0.112E+04   -.650E+00 0.149E+01 -.112E+04   0.994E-02 0.250E-01 -.111E+00   0.150E-03 0.720E-04 -.672E-03
   0.179E+01 0.481E+01 0.110E+04   -.180E+01 -.489E+01 -.110E+04   -.178E-01 0.201E-01 0.124E-01   0.103E-03 -.138E-04 -.288E-02
   -.201E+01 -.360E+01 0.111E+04   0.194E+01 0.363E+01 -.111E+04   0.830E-01 0.430E-01 -.249E-01   0.151E-03 0.239E-03 -.107E-02
   0.639E+00 -.514E+01 0.111E+04   -.548E+00 0.519E+01 -.111E+04   -.802E-01 0.354E-01 -.284E-01   -.278E-03 0.685E-04 -.998E-03
   -.479E+01 0.141E+01 0.111E+04   0.478E+01 -.149E+01 -.111E+04   0.229E-01 0.499E-01 -.395E-01   0.565E-03 0.265E-03 -.123E-02
   -.228E+01 -.707E+00 0.111E+04   0.231E+01 0.691E+00 -.111E+04   -.326E-02 0.264E-01 0.130E+00   -.155E-03 0.364E-03 0.508E-03
   0.700E+01 0.144E+01 0.111E+04   -.703E+01 -.152E+01 -.111E+04   -.274E-01 0.449E-01 -.918E-02   -.403E-03 0.253E-03 -.123E-02
   0.354E+00 -.616E+01 -.556E+03   -.346E+00 0.583E+01 0.557E+03   -.152E-01 0.345E+00 -.932E-01   -.223E-03 -.740E-02 -.323E-02
   0.581E+01 -.812E+00 -.502E+03   -.593E+01 0.885E+00 0.502E+03   0.123E+00 -.713E-01 0.232E+00   0.128E-02 -.188E-03 -.908E-02
   -.565E+01 -.190E+01 -.499E+03   0.577E+01 0.200E+01 0.499E+03   -.131E+00 -.104E+00 0.223E+00   -.233E-02 -.319E-03 -.103E-01
   0.777E+01 0.795E+01 -.508E+03   -.749E+01 -.785E+01 0.507E+03   -.277E+00 -.103E+00 0.176E+00   0.649E-02 0.175E-02 -.663E-02
   -.254E+01 0.409E+01 -.536E+03   0.251E+01 -.371E+01 0.536E+03   0.185E-01 -.399E+00 -.258E+00   0.335E-03 0.701E-02 -.302E-02
   -.584E+01 0.773E+01 -.519E+03   0.551E+01 -.757E+01 0.519E+03   0.324E+00 -.165E+00 0.126E+00   -.735E-02 0.251E-02 -.559E-02
   -.512E-01 -.680E+01 -.525E+03   0.355E+00 0.670E+01 0.526E+03   -.340E+00 0.978E-01 -.122E+00   0.621E-02 -.238E-02 -.740E-02
   -.771E+00 -.487E+01 -.544E+03   0.470E+00 0.475E+01 0.544E+03   0.326E+00 0.133E+00 -.226E+00   -.700E-02 -.263E-02 -.618E-02
   0.756E+00 0.124E+01 -.488E+03   -.773E+00 -.137E+01 0.487E+03   0.870E-02 0.114E+00 0.190E+00   -.140E-03 0.754E-03 -.890E-02
   -.183E+02 0.253E+02 -.218E+04   0.184E+02 -.252E+02 0.219E+04   -.972E-01 -.993E-01 -.353E+00   -.771E-03 0.636E-03 0.760E-03
   0.163E+02 0.180E+02 -.219E+04   -.164E+02 -.180E+02 0.219E+04   0.775E-01 0.497E-02 -.332E+00   -.130E-02 -.132E-03 0.737E-03
   0.329E+01 0.698E+02 -.214E+04   -.332E+01 -.699E+02 0.214E+04   0.233E-01 0.938E-01 -.146E+00   0.830E-03 -.518E-02 0.373E-02
   0.663E+02 0.636E+02 -.201E+04   -.670E+02 -.642E+02 0.202E+04   0.646E+00 0.673E+00 -.177E+01   -.926E-03 -.145E-03 -.123E-02
   -.682E+02 0.622E+02 -.205E+04   0.689E+02 -.630E+02 0.205E+04   -.680E+00 0.784E+00 -.181E+01   -.725E-03 -.172E-02 -.218E-02
   -.940E+01 0.127E+02 -.211E+04   0.932E+01 -.130E+02 0.211E+04   0.715E-01 0.248E+00 0.167E+00   -.395E-03 -.210E-02 0.854E-03
   0.408E+02 -.438E+02 -.212E+04   -.414E+02 0.444E+02 0.212E+04   0.615E+00 -.544E+00 0.185E+00   -.336E-02 0.510E-02 0.165E-02
   -.235E+01 -.158E+03 -.209E+04   0.250E+01 0.160E+03 0.209E+04   -.170E+00 -.131E+01 0.617E+00   -.942E-03 -.154E-02 -.611E-02
   -.426E+02 -.501E+02 -.213E+04   0.430E+02 0.505E+02 0.213E+04   -.404E+00 -.390E+00 0.779E-01   0.224E-02 0.400E-02 0.187E-02
   -.273E+02 0.122E+03 -.115E+04   0.272E+02 -.123E+03 0.115E+04   0.971E-01 0.751E+00 0.393E+00   -.636E-03 -.397E-04 0.176E-03
   -.663E+02 0.219E+02 -.110E+04   0.672E+02 -.236E+02 0.110E+04   -.750E+00 0.168E+01 -.211E+00   -.570E-03 -.519E-03 0.232E-03
   0.820E+02 0.970E+02 -.116E+04   -.820E+02 -.980E+02 0.116E+04   0.172E-01 0.103E+01 0.164E+00   -.285E-03 -.267E-03 0.147E-03
   -.639E+02 -.128E+03 -.115E+04   0.658E+02 0.127E+03 0.116E+04   -.189E+01 0.745E+00 -.386E+01   0.136E-03 -.376E-03 0.462E-03
   0.128E+03 0.269E+01 -.111E+04   -.129E+03 -.422E+01 0.111E+04   0.131E+01 0.151E+01 -.488E+00   -.380E-03 -.652E-03 0.541E-03
   0.895E+02 -.128E+03 -.116E+04   -.919E+02 0.128E+03 0.116E+04   0.241E+01 0.494E+00 -.361E+01   -.868E-03 -.206E-03 0.449E-03
   -.176E+02 0.681E+02 -.266E+03   0.191E+02 -.730E+02 0.264E+03   -.147E+01 0.488E+01 0.231E+01   -.880E-04 -.732E-04 -.809E-05
   -.189E+02 0.216E+02 -.318E+03   0.206E+02 -.220E+02 0.323E+03   -.173E+01 0.327E+00 -.517E+01   -.826E-04 0.240E-04 0.440E-04
   0.342E+02 0.610E+02 -.272E+03   -.368E+02 -.658E+02 0.271E+03   0.253E+01 0.481E+01 0.154E+01   0.211E-04 0.913E-04 0.719E-04
   0.292E+02 0.157E+01 -.316E+03   -.309E+02 -.583E+00 0.321E+03   0.167E+01 -.962E+00 -.508E+01   -.262E-04 -.460E-04 -.702E-04
   -.320E+02 -.618E+02 -.304E+03   0.350E+02 0.664E+02 0.306E+03   -.304E+01 -.460E+01 -.205E+01   0.939E-04 0.120E-03 0.191E-03
   0.629E+02 -.109E+02 -.294E+03   -.686E+02 0.118E+02 0.295E+03   0.561E+01 -.917E+00 -.947E+00   0.492E-04 -.571E-04 0.121E-03
   0.335E+02 -.589E+02 -.304E+03   -.362E+02 0.637E+02 0.306E+03   0.272E+01 -.484E+01 -.190E+01   -.200E-03 0.116E-03 0.150E-03
   -.123E+03 -.454E+01 -.114E+04   0.123E+03 0.458E+01 0.114E+04   -.551E+00 -.168E-01 0.468E+00   0.203E-03 -.378E-03 0.795E-03
   -.427E+02 -.415E+02 -.268E+03   0.459E+02 0.455E+02 0.266E+03   -.311E+01 -.404E+01 0.231E+01   0.170E-03 0.981E-04 0.601E-04
   -.402E+02 0.488E+02 -.278E+03   0.430E+02 -.536E+02 0.278E+03   -.279E+01 0.484E+01 0.564E+00   0.143E-03 -.197E-03 0.114E-03
   -.147E+02 -.134E+02 -.314E+03   0.143E+02 0.144E+02 0.319E+03   0.441E+00 -.106E+01 -.528E+01   0.162E-04 -.107E-04 0.268E-03
   -.153E+01 -.406E+01 0.228E+02   0.144E-12 0.977E-13 0.682E-12   0.156E+01 0.408E+01 -.226E+02   -.103E-01 -.435E-02 -.684E-01

 POSITION                                       TOTAL-FORCE (eV/Angst)
      0.00000      0.00000     10.00000         0.005336     -0.026146     -0.189745
      2.81853      0.00000     10.00000         0.004774      0.029744     -0.182029
      5.63706      0.00000     10.00000        -0.007094     -0.022910     -0.185823
      9.86484      2.44092     10.00000         0.060450      0.006904     -0.255722
      4.22779      2.44092     10.00000        -0.048922      0.014215     -0.278812
      7.04632      2.44092     10.00000        -0.007380      0.009465     -0.158467
      2.81853      4.88183     10.00000         0.007182     -0.044615     -0.328907
      5.63706      4.88183     10.00000        -0.038141     -0.018490     -0.182935
      8.45558      4.88183     10.00000         0.032712     -0.015646     -0.163387
      1.40926      0.81364     12.30132         0.105978      0.005982      0.195880
      4.22779      0.81364     12.30132        -0.102313     -0.019737      0.230819
      7.04632      0.81364     12.30132         0.000449      0.021431     -0.008510
      2.81853      3.25455     12.30132        -0.033775     -0.060329      0.108972
      5.63705      3.25455     12.30132         0.007994      0.068659      0.171184
      8.45558      3.25455     12.30132         0.009976      0.088622      0.205408
      4.22779      5.69547     12.30132         0.015343     -0.033378      0.118747
      7.04632      5.69547     12.30132         0.032608      0.010513      0.580572
      9.86485      5.69547     12.30132        -0.055489     -0.036074      0.197687
      2.81931      1.60292     14.65183        -0.008214      0.001881      0.010173
      5.63290      1.64457     14.57336         0.003355      0.000882     -0.006996
      8.45988      1.65251     14.56993        -0.015038      0.002366     -0.024049
      4.23913      4.07275     14.59265         0.006160     -0.006604     -0.011799
      7.04449      4.10808     14.65316        -0.007955     -0.011329      0.051440
      9.83603      4.08495     14.61129        -0.013196     -0.002619     -0.005636
      5.65664      6.52303     14.62829        -0.030207      0.004438     -0.005669
      8.43434      6.51666     14.65738         0.017859      0.010381      0.002270
     11.27005      6.51704     14.56040        -0.007916     -0.017584      0.006260
      9.86767      2.45847     16.93445        -0.014515      0.001645     -0.024453
      4.22439      2.45352     16.93559        -0.014772     -0.002235     -0.022450
      7.04456      2.46717     16.88747        -0.005900     -0.032422      0.015996
      5.58416      4.89780     17.02663        -0.022251      0.007507      0.012416
      8.48749      4.88380     17.12831        -0.013193      0.010376      0.029425
     11.26417      4.88417     16.86641        -0.010434     -0.011150     -0.039325
      8.42055      0.05371     16.84978        -0.014419      0.030704     -0.024156
      7.05231      7.28408     17.17325        -0.018915     -0.037716     -0.014632
      5.66172      0.04369     16.87585        -0.005603      0.019629     -0.014608
      7.54111      4.11922     19.92344         0.003985     -0.035567      0.063178
      8.35321      5.25438     19.24855         0.071100     -0.062276     -0.018869
      6.00348      4.27194     19.93975         0.020702      0.016053      0.016917
      7.67333      6.58291     19.24394        -0.020883      0.038781      0.052404
      5.46606      5.40956     19.07544         0.011573     -0.013531      0.014541
      6.25373      6.66919     19.17466        -0.018798      0.018153      0.021660
      7.82980      3.15637     19.46761         0.004508      0.041450      0.004722
      7.89233      4.06853     20.97192         0.007208     -0.010979     -0.017461
      5.51139      3.33188     19.64487         0.009945     -0.004329      0.032364
      5.67173      4.48183     20.97567         0.020519      0.020558      0.032306
      4.00952      0.11193     19.63343         0.028600      0.040926     -0.017048
      4.40208      5.59135     19.27113        -0.009088     -0.024844      0.001931
      1.52313      0.24724     19.53863         0.008985      0.014660     -0.003408
      9.75026      5.33013     19.86996         0.023487      0.025677     -0.001973
     10.35555      6.13092     19.41658         0.001054     -0.013719      0.001377
     10.28985      4.37629     19.76545        -0.009688      0.003111     -0.007292
      9.64357      5.54667     20.95094         0.032260     -0.000485      0.015515
    total drift:                                0.013132      0.018796      0.097620

  FREE ENERGIE OF THE ION-ELECTRON SYSTEM (eV)
  free  energy   TOTEN  =      -245.86871834 eV

  energy  without entropy=     -245.84430999  energy(sigma->0) =     -245.86261625

 d Force = 0.1744116E-02[ 0.104E-02, 0.245E-02]  d Energy = 0.1725190E-02 0.189E-04
 d Force = 0.4479034E+01[ 0.448E+01, 0.448E+01]  d Ewald  = 0.4479034E+01-0.317E-06

 Conjugate gradient step on ions:
 trial-energy change:   -0.001725  1 .order   -0.001744   -0.002446   -0.001043
  (g-gl).g = 0.166E-02      g.g   = 0.167E-02  gl.gl    = 0.215E-02
 g(Force)  = 0.167E-02   g(Stress)= 0.000E+00 ortho     = 0.167E-04
 gamma     =   0.76920
 trial     =   1.45075
 opt step  =   2.72196  (harmonic =   2.52891) maximal distance =0.00405712
 next E    =  -245.869162   (d E  =  -0.00217)

 reached required accuracy - stopping structural energy minimisation
 writing wavefunctions